# ================================================================
# LAMMPS Input: common equilibration
# Generated automatically by write_lammps_input.py
# Flow: system.data -> minimization -> NPT(1 atm) -> NVT
# ================================================================

units           real
atom_style      full
boundary        p p p

pair_style      lj/cut/coul/long 12.0
bond_style      harmonic
angle_style     harmonic
dihedral_style  opls
improper_style  cvff

pair_modify     mix geometric tail yes
kspace_style    pppm 1e-5
special_bonds   lj 0.0 0.0 0.5 coul 0.0 0.0 0.5

read_data       system.data

neighbor        2.0 bin
neigh_modify    every 1 delay 0 check yes
timestep        0.500000

variable        T equal 298.150000
variable        seed equal 20260507

thermo          500
thermo_style    custom step temp press density vol pe ke etotal
thermo_modify   flush yes

# ================================================================
# Stage 1: Energy minimization
# ================================================================
min_style       cg
minimize        1.0e-6 1.0e-8 50000 500000
write_restart   stage1_minimized.restart
write_data      stage1_minimized.data
reset_timestep  0

velocity        all create ${T} ${seed} rot yes dist gaussian
fix             mom all momentum 100 linear 1 1 1

variable        t_inst   equal temp
variable        p_inst   equal press
variable        rho_inst equal density
variable        vol_inst equal vol
variable        pe_inst  equal pe
variable        ke_inst  equal ke
variable        et_inst  equal etotal

fix             nptlog all ave/time 100 10 1000 v_t_inst v_p_inst v_rho_inst v_vol_inst file density_npt.dat

# ================================================================
# Stage 2: NPT equilibration at 1 atm
# ================================================================
fix             f_npt_1 all npt temp ${T} ${T} 100.0 iso 1.0 1.0 1000.0 drag 2.0
run             1000000
unfix           f_npt_1
write_restart   equil_npt.restart
write_data      equil_npt.data

# ================================================================
# Stage 3: NVT equilibration at fixed volume
# ================================================================
fix             nvtlog all ave/time 100 10 1000 v_t_inst v_p_inst v_rho_inst v_vol_inst v_pe_inst v_ke_inst v_et_inst file thermo_nvt.dat
fix             f_nvt_eq all nvt temp ${T} ${T} 100.0
run             1000000
unfix           f_nvt_eq
unfix           nvtlog
write_restart   equil_nvt.restart
write_data      equil_nvt.data
unfix           nptlog
