        4500
  Built with Packmol                                             
  C           13.685802       23.320217       30.074262
  C           13.284503       22.405790       31.213036
  O           11.922036       22.029237       31.075930
  H           13.073123       24.227731       30.072286
  H           14.738084       23.606320       30.156236
  H           13.527054       22.826855       29.109738
  H           13.416350       22.901445       32.179593
  H           13.892154       21.496253       31.205989
  H           11.389868       22.842938       31.093010
  C            4.481969       16.930728       35.586202
  C            4.681551       18.420695       35.771108
  O            3.626295       18.958023       36.555084
  H            3.533534       16.727359       35.078193
  H            5.296029       16.498357       34.997785
  H            4.438493       16.424544       36.556150
  H            4.700448       18.936901       34.806502
  H            5.625283       18.619380       36.287285
  H            2.793523       18.785068       36.083724
  C           27.932633        4.547641       19.595803
  C           26.437213        4.361642       19.747941
  O           25.943474        3.529552       18.708348
  H           28.168628        5.015793       18.634501
  H           28.331448        5.173307       20.399147
  H           28.444932        3.580083       19.612969
  H           25.915842        5.322741       19.706096
  H           26.206115        3.885158       20.705074
  H           26.144953        3.965855       17.862978
  C           31.341247        9.321771       15.974140
  C           31.445412        7.821541       15.793913
  O           31.135017        7.471173       14.453091
  H           30.327226        9.669029       15.750232
  H           31.593643        9.609885       16.998425
  H           32.014953        9.840394       15.284167
  H           30.756108        7.297057       16.462544
  H           32.461968        7.479765       16.009201
  H           30.227096        7.770228       14.274629
  C            5.853245       31.605434        6.603632
  C            6.116069       32.193672        7.974370
  O            5.286520       33.327332        8.183103
  H            6.065454       32.340146        5.819969
  H            6.473122       30.720720        6.433616
  H            4.799881       31.324988        6.500251
  H            7.161582       32.499983        8.076190
  H            5.893912       31.460086        8.754782
  H            5.498080       33.976809        7.490986
  C           21.125572       15.590066       27.351717
  C           20.643999       15.942860       25.959723
  O           21.743040       16.337772       25.151602
  H           21.611585       16.450750       27.822862
  H           20.292466       15.267641       27.982469
  H           21.869504       14.787723       27.310199
  H           19.918908       16.761734       25.991001
  H           20.167672       15.078060       25.488788
  H           22.153464       17.112095       25.573003
  C           21.562518       13.604759       33.724559
  C           20.993333       13.363571       35.107266
  O           21.533256       14.303350       36.024983
  H           22.652237       13.497800       33.730501
  H           21.143663       12.898909       33.001919
  H           21.344566       14.624539       33.390705
  H           21.229267       12.354427       35.458342
  H           19.905777       13.480639       35.099344
  H           22.498418       14.184961       36.032028
  C           27.364617        8.914341        6.307185
  C           27.836124        7.475000        6.307508
  O           27.103660        6.724223        5.350044
  H           26.300778        8.973196        6.559661
  H           27.930855        9.510286        7.028362
  H           27.480774        9.357581        5.312721
  H           27.699346        7.017351        7.291957
  H           28.896726        7.419534        6.045607
  H           26.164244        6.771605        5.596733
  C           20.628824       31.986484       31.649757
  C           19.214632       31.473470       31.825542
  O           19.220055       30.299980       32.625417
  H           21.255173       31.234388       31.158839
  H           20.640270       32.900269       31.049142
  H           21.086269       32.196140       32.622229
  H           18.759668       31.237467       30.858794
  H           18.594523       32.223686       32.324726
  H           19.765336       29.636657       32.169045
  C           29.935540       17.504654       13.638981
  C           28.917340       17.519696       14.760170
  O           29.426188       16.821216       15.887160
  H           30.163527       16.477155       13.336939
  H           29.565135       18.053266       12.768523
  H           30.877308       17.956216       13.967730
  H           27.981598       17.046827       14.447003
  H           28.699332       18.547195       15.065560
  H           29.607591       15.907457       15.608339
  C           12.396514        9.308712        4.999286
  C           13.441173        8.847165        5.994115
  O           13.030737        9.171615        7.314410
  H           12.254173       10.392561        5.062319
  H           12.690182        9.051254        3.977842
  H           11.427530        8.847245        5.216150
  H           14.406544        9.324002        5.799245
  H           13.573676        7.762973        5.934811
  H           12.925107       10.137225        7.359606
  C           16.708036       11.296662       23.868824
  C           17.723528       10.178833       23.753688
  O           17.105885        8.931290       24.034862
  H           16.289168       11.336461       24.879729
  H           17.164571       12.263389       23.638853
  H           15.870654       11.128530       23.183670
  H           18.551189       10.326723       24.453971
  H           18.132630       10.136169       22.740100
  H           16.754242        8.975761       24.940386
  C           20.467352        4.953100        8.558933
  C           21.919093        4.655576        8.871903
  O           22.761053        5.567364        8.181502
  H           20.275570        4.858105        7.485081
  H           19.804535        4.269336        9.096532
  H           20.216210        5.981842        8.837373
  H           22.184378        3.637037        8.572750
  H           22.108925        4.760769        9.944024
  H           22.592052        5.459524        7.229970
  C           21.061147       10.372071       17.857902
  C           20.286516       11.424240       18.624004
  O           20.687093       12.721348       18.206925
  H           22.136494       10.477358       18.035397
  H           20.752183        9.366304       18.155976
  H           20.903694       10.486138       16.780354
  H           20.459195       11.332542       19.700602
  H           19.213679       11.321849       18.436706
  H           21.639090       12.805961       18.386220
  C           15.506667       24.715185        6.347117
  C           15.146830       26.141955        6.706099
  O           14.337909       26.159397        7.873254
  H           14.604589       24.125539        6.153377
  H           16.143901       24.685470        5.458904
  H           16.032073       24.230085        7.176296
  H           14.598791       26.625351        5.891684
  H           16.049865       26.725253        6.908180
  H           13.534219       25.646983        7.680594
  C           35.757161       24.631109       18.075650
  C           34.272618       24.901045       18.207136
  O           33.700939       24.015926       19.159319
  H           35.935762       23.602666       17.744943
  H           36.215937       25.316319       17.357399
  H           36.256755       24.745661       19.043222
  H           33.762269       24.763529       17.249052
  H           34.098520       25.926175       18.546760
  H           33.852282       23.108590       18.843979
  C           17.867707       12.344733       13.848376
  C           17.800302       13.773277       13.349636
  O           16.543898       14.345028       13.683489
  H           17.078022       11.738113       13.392996
  H           18.836449       11.895036       13.613461
  H           17.713223       12.307190       14.931721
  H           17.928412       13.816419       12.263811
  H           18.584547       14.378247       13.813874
  H           15.854592       13.806464       13.258742
  C            9.361755       26.844769        3.854628
  C            9.403946       28.033346        2.916797
  O           10.609599       28.016838        2.166440
  H           10.205386       26.871952        4.552131
  H            8.430965       26.833797        4.428546
  H            9.442797       25.908102        3.293380
  H            9.349131       28.974186        3.472770
  H            8.565199       27.997631        2.215532
  H           11.348242       28.058590        2.797523
  C           15.205616       11.632340       32.651564
  C           14.303732       12.813453       32.944138
  O           14.970128       14.024906       32.619786
  H           16.125370       11.691874       33.242723
  H           14.700499       10.689884       32.880707
  H           15.504080       11.627153       31.598092
  H           14.021846       12.839764       34.001086
  H           13.390478       12.755472       32.344847
  H           15.774641       14.071720       33.164003
  C           21.354500       12.784959       15.558292
  C           21.543008       14.271379       15.336835
  O           22.841520       14.524183       14.820249
  H           22.092451       12.403237       16.271510
  H           20.352464       12.571732       15.940825
  H           21.501147       12.234475       14.623212
  H           21.423120       14.825957       16.272442
  H           20.810307       14.647101       14.616746
  H           23.485015       14.195727       15.471122
  C           29.789466       14.322151        4.935174
  C           30.255725       15.685405        4.468094
  O           29.185343       16.375163        3.839266
  H           29.439020       13.722059        4.088984
  H           30.598589       13.784122        5.436887
  H           28.946502       14.419512        5.627161
  H           31.081755       15.595091        3.756190
  H           30.596048       16.285246        5.317162
  H           28.896533       15.839255        3.080983
  C            5.903198       14.118584       16.521636
  C            6.217816       12.809148       17.214756
  O            7.395444       12.238662       16.662811
  H            5.743288       13.960611       15.449986
  H            5.007266       14.579403       16.946871
  H            6.740856       14.816990       16.618949
  H            5.395303       12.096702       17.099934
  H            6.386267       12.972359       18.283181
  H            7.232491       12.088604       15.715957
  C           26.150758        2.963942        8.026959
  C           27.207134        2.989855        6.941868
  O           27.878801        4.241146        6.948324
  H           25.411643        3.755743        7.866579
  H           25.634992        1.999839        8.046058
  H           26.601971        3.143682        9.008291
  H           26.760056        2.836302        5.955038
  H           27.948773        2.203728        7.110746
  H           27.213375        4.931872        6.787987
  C           15.543963       24.144643       19.939418
  C           14.986862       22.740669       20.051310
  O           13.663406       22.783254       20.564689
  H           15.567302       24.631097       20.920122
  H           16.557716       24.130347       19.529572
  H           14.909538       24.760539       19.293593
  H           15.601753       22.126170       20.715833
  H           14.956235       22.261499       19.068456
  H           13.702470       23.201652       21.441627
  C           17.612468       14.769103       27.229522
  C           17.620357       13.365097       26.661429
  O           18.852363       12.726401       26.963313
  H           18.426136       15.364201       26.802013
  H           16.662923       15.269299       27.019662
  H           17.769332       14.747217       28.312955
  H           17.489610       13.380429       25.575169
  H           16.812201       12.770987       27.097850
  H           19.562953       13.256223       26.563369
  C           32.500316       19.905019       13.557546
  C           32.174422       20.038941       12.084494
  O           31.203639       19.071462       11.712378
  H           32.900335       18.909531       13.776518
  H           33.235124       20.654682       13.864036
  H           31.597010       20.025694       14.164496
  H           33.068124       19.894102       11.469995
  H           31.766279       21.031183       11.871374
  H           31.579157       18.193558       11.896425
  C           11.917276       13.255699        9.215126
  C           11.471784       14.669382        9.526671
  O           12.192596       15.593244        8.724291
  H           12.986057       13.132875        9.419043
  H           11.359276       12.530223        9.813619
  H           11.767550       13.029528        8.154305
  H           11.642119       14.911471       10.580080
  H           10.405934       14.790803        9.312743
  H           13.137072       15.484356        8.928525
  C           23.324089       34.059319       20.408931
  C           23.577401       35.244673       21.317113
  O           22.741293       36.329983       20.943040
  H           23.536464       34.318124       19.366397
  H           23.949121       33.208672       20.694601
  H           22.272627       33.757154       20.454071
  H           24.620892       35.568581       21.257945
  H           23.355089       34.985194       22.356244
  H           22.952996       36.559233       20.022046
  C           28.534039       27.197218       13.129237
  C           27.288389       26.604942       12.503467
  O           26.170933       26.815250       13.354330
  H           28.741277       26.728707       14.096972
  H           29.401458       27.058029       12.478021
  H           28.399634       28.267701       13.316088
  H           27.405814       25.529835       12.337193
  H           27.079292       27.082006       11.541576
  H           26.362208       26.379737       14.202472
  C           26.691854       19.263397        3.563704
  C           28.163282       19.466839        3.859568
  O           28.901122       19.506666        2.646757
  H           26.531270       18.321819        3.028349
  H           26.107012       19.246979        4.487589
  H           26.314067       20.064232        2.919614
  H           28.554234       18.656322        4.482070
  H           28.320733       20.412761        4.385862
  H           28.762605       18.658702        2.191373
  C           11.866188       33.687835       19.067030
  C           12.409060       33.341450       17.696143
  O           12.206310       31.961554       17.428400
  H           12.373747       33.105232       19.842865
  H           11.999868       34.751704       19.281936
  H           10.800598       33.444553       19.132182
  H           13.479659       33.558131       17.631661
  H           11.893128       33.918325       16.923113
  H           12.676225       31.457660       18.114602
  C           12.896461        7.381838       28.121757
  C           11.448084        7.322925       28.560796
  O           11.162326        6.049681       29.121242
  H           13.103678        6.615804       27.367294
  H           13.137219        8.362739       27.702540
  H           13.563657        7.184619       28.967254
  H           10.774455        7.493846       27.715633
  H           11.247334        8.083183       29.321225
  H           11.334421        5.382178       28.435365
  C           12.857513       25.855469       32.579973
  C           13.875376       26.936348       32.280507
  O           14.810409       26.469385       31.318963
  H           13.348241       24.961356       32.978357
  H           12.119680       26.205436       33.307295
  H           12.337154       25.552274       31.665527
  H           14.417561       27.226573       33.185546
  H           13.382549       27.824233       31.873902
  H           15.249604       25.686661       31.693201
  C           25.943950       16.608755       35.185126
  C           25.329331       15.265234       35.518618
  O           26.134401       14.586432       36.471506
  H           26.947089       16.481888       34.764913
  H           25.326571       17.151771       34.464120
  H           26.051957       17.217920       36.088545
  H           25.241730       14.640809       34.624354
  H           24.331375       15.396495       35.946870
  H           27.015562       14.466093       36.078214
  C            2.860749       25.070077       13.513921
  C            3.808025       26.231551       13.295590
  O            5.039119       25.760847       12.766673
  H            3.288365       24.348992       14.218294
  H            1.900998       25.418068       13.905908
  H            2.686425       24.533456       12.575539
  H            4.007203       26.757435       14.234240
  H            3.381626       26.944822       12.584271
  H            5.414538       25.135554       13.409847
  C            2.828656       14.253480        8.127803
  C            4.151202       13.924714        7.466889
  O            5.198690       14.656123        8.087143
  H            2.606392       15.321934        8.038550
  H            2.013082       13.685195        7.671992
  H            2.865193       14.024234        9.197861
  H            4.130789       14.175109        6.401912
  H            4.374297       12.858472        7.566399
  H            4.996311       15.601755        7.985032
  C           34.681320       11.426657       10.569172
  C           35.682873       12.163208       11.434278
  O           36.134426       13.332077       10.765883
  H           35.135852       11.129405        9.618381
  H           34.311049       10.531792       11.077099
  H           33.831745       12.073692       10.327346
  H           36.547263       11.531056       11.659013
  H           35.222540       12.466794       12.378986
  H           36.550177       13.051295        9.932867
  C           25.476030       24.809666       18.649553
  C           26.927443       24.393509       18.530239
  O           27.684692       25.438474       17.937339
  H           25.053688       25.028163       17.663222
  H           24.881783       24.021326       19.119939
  H           25.385169       25.724384       19.244488
  H           27.028627       23.494023       17.915441
  H           27.348459       24.185335       19.518143
  H           27.309192       25.609368       17.056772
  C           18.735120       25.876980        5.521177
  C           19.693557       27.049734        5.529604
  O           19.283401       28.004672        6.497473
  H           17.720848       26.207788        5.274644
  H           19.046644       25.124068        4.791830
  H           18.686474       25.412053        6.511323
  H           19.728188       27.535433        4.549713
  H           20.703615       26.716839        5.785554
  H           18.389343       28.301300        6.256071
  C           29.612035        7.585034       29.652816
  C           28.864047        7.049342       28.449665
  O           29.775282        6.769307       27.396984
  H           30.143487        8.508045       29.398706
  H           28.925614        7.790346       30.478980
  H           30.366044        6.865873       29.989253
  H           28.125952        7.773581       28.091918
  H           28.342302        6.122398       28.704816
  H           30.226622        7.600490       27.171082
  C           20.990418       20.142143       14.970556
  C           19.558562       20.059734       14.483711
  O           19.394337       18.922062       13.649661
  H           21.682062       20.227848       14.126017
  H           21.129601       21.004688       15.628216
  H           21.264876       19.233140       15.515807
  H           19.284989       20.954068       13.915719
  H           18.871493       19.964639       15.329547
  H           20.001637       19.020538       12.896605
  C            5.807564        5.366606        3.331632
  C            4.831327        4.215096        3.209116
  O            4.096138        4.328840        1.999378
  H            5.277429        6.324675        3.336116
  H            6.393816        5.284606        4.251119
  H            6.490989        5.384953        2.476350
  H            4.128464        4.205444        4.047674
  H            5.365164        3.260436        3.195387
  H            3.618043        5.175217        2.025367
  C           23.724842       19.983721        5.953815
  C           22.839943       19.062694        5.139760
  O           23.629319       18.310749        4.229612
  H           24.261832       20.680537        5.301856
  H           23.133355       20.558531        6.671875
  H           24.481735       19.409225        6.497854
  H           22.096910       19.631943        4.573061
  H           22.312563       18.361991        5.793541
  H           24.086099       18.941482        3.647262
  C           24.405941        5.667660       23.403442
  C           23.151262        6.513258       23.334398
  O           23.445010        7.769853       22.741450
  H           25.174733        6.164179       24.004600
  H           24.193020        4.689244       23.843032
  H           24.828141        5.522403       22.403663
  H           22.737641        6.684165       24.332896
  H           22.389184        6.018477       22.725322
  H           24.115513        8.205535       23.294814
  C           31.091545       32.712974       23.199603
  C           29.954882       33.448706       23.878366
  O           28.753611       33.271166       23.141933
  H           31.247048       33.092908       22.184501
  H           32.021377       32.826212       23.763927
  H           30.860249       31.646623       23.108434
  H           30.167839       34.519588       23.950137
  H           29.796365       33.060007       24.888480
  H           28.901369       33.628107       22.249540
  C           31.484385        6.879016        2.759063
  C           30.414576        6.049684        3.438577
  O           29.489112        5.567876        2.475102
  H           31.040114        7.737418        2.244544
  H           32.215094        7.244200        3.486096
  H           32.005860        6.287507        1.999396
  H           29.871765        6.641786        4.181585
  H           30.861119        5.188076        3.943331
  H           29.090932        6.340507        2.039099
  C           19.137669       23.421618       16.220417
  C           17.861357       24.237091       16.213243
  O           18.104102       25.513227       15.639260
  H           19.914591       23.923853       16.806176
  H           18.963683       22.428861       16.644722
  H           19.528453       23.308730       15.203826
  H           17.478482       24.375855       17.228843
  H           17.090827       23.736931       15.619384
  H           18.782636       25.953260       16.179228
  C           22.501070       15.767962        6.918886
  C           22.491244       15.360561        8.377635
  O           23.798009       14.981256        8.784329
  H           22.834123       14.937751        6.287390
  H           21.504228       16.079037        6.594215
  H           23.200907       16.593812        6.754226
  H           21.812901       14.518558        8.545479
  H           22.167217       16.195221        9.006042
  H           24.072974       14.233362        8.226968
  C            6.879756       10.809933        8.738528
  C            6.978924       12.283557        9.074119
  O            6.347751       12.541043       10.320003
  H            5.832333       10.498620        8.668178
  H            7.376087       10.592080        7.788755
  H            7.339845       10.203714        9.525757
  H            6.498497       12.894706        8.304069
  H            8.026440       12.588592        9.152917
  H            5.415881       12.275880       10.236869
  C           29.839806       21.557431       29.142306
  C           29.815743       20.043233       29.167770
  O           28.618303       19.566852       28.571026
  H           28.988782       21.967428       29.696041
  H           30.764159       21.940175       29.583839
  H           29.758736       21.926809       28.114736
  H           29.870674       19.666971       30.193781
  H           30.661870       19.637406       28.605703
  H           27.873081       19.924817       29.082992
  C           16.191445       11.012983       35.967585
  C           16.745201       12.384474       35.641410
  O           17.946262       12.257710       34.894223
  H           16.909676       10.436367       36.559717
  H           15.256605       11.093426       36.529257
  H           16.005748       10.444377       35.050461
  H           16.957365       12.949388       36.554180
  H           16.028991       12.953850       35.041910
  H           18.579050       11.759098       35.438804
  C            8.068905       30.044484       25.254625
  C            8.627900       31.054775       26.234860
  O            7.607727       31.957838       26.635649
  H            7.678534       30.545573       24.362728
  H            8.838920       29.330840       24.948581
  H            7.234251       29.494748       25.701900
  H            9.446155       31.625999       25.786026
  H            9.008155       30.551312       27.128435
  H            7.283205       32.406907       25.836508
  C           23.739563        4.838918       29.213411
  C           24.870266        4.610503       28.231902
  O           25.839720        5.640353       28.360251
  H           23.251583        5.800802       29.024690
  H           22.991860        4.044426       29.138623
  H           24.120622        4.871159       30.239407
  H           24.500537        4.602555       27.202083
  H           25.361288        3.653233       28.429582
  H           25.396249        6.485354       28.173412
  C           35.606009       34.242206       35.528333
  C           35.316048       34.771991       34.139349
  O           36.419943       35.532082       33.669686
  H           35.783188       35.065969       36.227606
  H           34.771327       33.640181       35.898122
  H           36.511945       33.627244       35.524764
  H           34.426094       35.408600       34.139909
  H           35.149045       33.946137       33.441767
  H           36.554175       36.268439       34.290463
  C           13.789527       31.845502       11.215286
  C           14.849698       32.210961       10.197199
  O           15.205360       31.066699        9.434916
  H           14.158895       31.073886       11.898761
  H           13.492427       32.720512       11.800062
  H           12.904447       31.434022       10.719071
  H           15.747510       32.599279       10.687539
  H           14.473815       32.974965        9.510501
  H           15.546933       30.397662       10.052427
  C           24.575067        8.214355       19.934454
  C           23.499157        7.150112       19.996319
  O           22.215044        7.755948       19.965958
  H           24.493111        8.897571       20.786193
  H           25.571001        7.762741       19.940256
  H           24.466174        8.820098       19.028844
  H           23.586045        6.556827       20.911608
  H           23.578356        6.475379       19.138992
  H           22.150904        8.345789       20.736398
  C            9.454110       33.699197       23.915205
  C            9.252797       32.535309       22.967123
  O            9.596868       31.318202       23.613013
  H           10.498958       33.760036       24.236999
  H            9.177478       34.643343       23.437777
  H            8.849762       33.568935       24.818924
  H            9.873221       32.645827       22.072612
  H            8.206189       32.472058       22.655422
  H           10.530582       31.380418       23.877421
  C           23.830154       30.262187       26.667924
  C           23.887056       31.614196       27.348260
  O           25.233143       32.059159       27.431696
  H           24.406740       29.520958       27.231031
  H           22.797626       29.912629       26.580921
  H           24.271473       30.315545       25.667273
  H           23.470815       31.562899       28.358905
  H           23.317956       32.354026       26.777889
  H           25.728154       31.400462       27.948112
  C           20.723986       34.561161       18.379487
  C           20.799358       35.782409       17.486796
  O           19.614686       36.554324       17.619489
  H           19.868627       33.934406       18.106541
  H           21.636817       33.964089       18.301272
  H           20.582072       34.855921       19.424422
  H           20.915597       35.495009       16.437424
  H           21.649262       36.410734       17.768605
  H           18.866714       35.990717       17.357788
  C           21.820548       13.130403       10.833898
  C           20.361108       13.509699       10.976006
  O           20.118228       14.025505       12.276721
  H           22.094878       12.365425       11.567732
  H           22.027748       12.746385        9.831166
  H           22.463716       13.996498       11.021321
  H           19.712827       12.643009       10.815165
  H           20.093292       14.280747       10.247786
  H           20.349918       13.330159       12.915797
  C           11.690702       26.696675       21.029423
  C           12.804568       26.108063       20.188672
  O           13.893683       27.016999       20.121069
  H           11.332822       27.635911       20.595004
  H           10.850152       26.001247       21.105103
  H           12.050202       26.928712       22.037308
  H           12.459465       25.897185       19.171949
  H           13.165853       25.175062       20.630858
  H           13.565086       27.838802       19.718245
  C            7.638615       16.921838       24.488964
  C            8.369111       18.181915       24.904421
  O            8.233604       18.382333       26.303841
  H            6.572542       16.995938       24.727626
  H            7.747285       16.744131       23.415426
  H            8.026987       16.054356       25.032614
  H            7.969052       19.057292       24.383884
  H            9.435133       18.100323       24.673152
  H            7.284164       18.463211       26.497817
  C            6.364349       29.497853       22.103341
  C            5.197357       29.032422       22.949229
  O            3.998504       29.649974       22.503935
  H            6.485594       30.583726       22.175043
  H            7.293578       29.018207       22.423254
  H            6.191426       29.265894       21.047308
  H            5.351472       29.283724       24.002978
  H            5.073525       27.948661       22.867544
  H            4.114855       30.611619       22.589405
  C           24.999878       17.803214       15.167830
  C           24.863917       17.690420       16.672096
  O           23.658600       17.015241       17.001108
  H           24.160547       18.364592       14.744345
  H           25.932147       18.306744       14.897265
  H           24.985660       16.811342       14.704257
  H           24.851641       18.679287       17.140370
  H           25.698994       17.120971       17.090331
  H           22.922499       17.533679       16.633709
  C            2.589547       19.263645       13.238372
  C            4.095216       19.205935       13.084573
  O            4.628060       20.521183       13.028850
  H            2.133787       19.787477       12.391706
  H            2.165019       18.257708       13.299520
  H            2.315515       19.819157       14.141271
  H            4.376336       18.674080       12.170575
  H            4.547600       18.690431       13.936718
  H            4.227552       20.967542       12.263369
  C           20.631935        7.814405        6.399308
  C           19.172077        8.070315        6.711313
  O           18.794577        9.357483        6.244841
  H           21.268366        8.560708        6.886081
  H           20.934399        6.819510        6.737791
  H           20.815357        7.893140        5.322707
  H           18.985920        8.018514        7.788324
  H           18.538957        7.328652        6.215692
  H           19.355807       10.009699        6.697874
  C           29.331546        9.250780       18.220318
  C           28.010142        9.372181       18.950509
  O           27.022372        9.905820       18.080771
  H           29.671000       10.230677       17.868844
  H           30.099617        8.825404       18.872235
  H           29.225794        8.614366       17.335611
  H           28.101941       10.027589       19.821890
  H           27.669672        8.390240       19.291708
  H           27.329399       10.781769       17.790853
  C           15.995041       30.294330       26.518223
  C           15.774981       31.741716       26.906386
  O           16.383356       32.005173       28.162323
  H           15.557162       29.622721       27.263988
  H           15.546272       30.079234       25.544460
  H           17.064952       30.065886       26.473305
  H           14.707462       31.970902       26.978263
  H           16.221971       32.409352       26.164087
  H           15.972994       31.414239       28.816543
  C           24.834767       35.879041       16.798796
  C           26.142644       35.115443       16.818806
  O           27.234754       36.023245       16.809011
  H           24.762585       36.499575       15.899524
  H           23.982821       35.193850       16.822751
  H           24.769999       36.554801       17.657904
  H           26.225829       34.456530       15.949206
  H           26.215265       34.504184       17.723037
  H           27.166790       36.554855       15.997607
  C           26.074547       10.094520       23.011155
  C           25.495588       10.434202       24.368891
  O           25.429563       11.843734       24.529405
  H           27.084977       10.503583       22.907901
  H           26.116792        9.011575       22.865151
  H           25.469203       10.536151       22.212761
  H           26.109769       10.017536       25.172919
  H           24.482803       10.032160       24.464665
  H           26.334865       12.190277       24.452334
  C           19.597819       12.605299        7.789636
  C           19.544138       12.756091        6.283514
  O           20.227729       13.936886        5.889392
  H           19.124294       13.461363        8.281459
  H           19.089476       11.691022        8.108317
  H           20.635758       12.572791        8.136823
  H           18.509765       12.815007        5.931532
  H           20.026452       11.903879        5.796018
  H           19.786076       14.688784        6.319736
  C           33.495159        4.617619       30.930722
  C           34.737654        3.779978       31.151147
  O           35.898892        4.576098       30.965068
  H           33.478047        5.024651       29.914359
  H           32.591030        4.022551       31.086661
  H           33.479643        5.471542       31.615914
  H           34.772936        2.938662       30.452410
  H           34.755916        3.383034       32.170287
  H           35.878365        4.916088       30.054250
  C           14.538365       25.755436        2.791601
  C           15.391580       24.513974        2.949139
  O           16.725318       24.879596        3.272203
  H           14.927257       26.393343        1.991101
  H           13.503338       25.490228        2.558671
  H           14.553056       26.352057        3.709610
  H           15.402359       23.925431        2.026755
  H           15.005635       23.884041        3.755846
  H           17.062430       25.430714        2.545411
  C           27.180174        5.422188       32.858998
  C           25.699884        5.739171       32.811189
  O           24.960535        4.699048       33.434418
  H           27.392163        4.483848       32.335987
  H           27.765365        6.222314       32.397238
  H           27.513066        5.291999       33.893959
  H           25.354372        5.845506       31.778423
  H           25.490781        6.672061       33.342730
  H           25.145364        3.876762       32.949354
  C            4.291840       34.427885       10.333826
  C            5.299352       33.646391       11.151265
  O            6.132456       34.538858       11.876763
  H            4.799066       35.086488        9.621137
  H            3.631177       33.753951        9.781369
  H            3.683628       35.067864       10.981452
  H            5.928168       33.023432       10.507989
  H            4.789155       32.996839       11.868431
  H            6.588395       35.104883       11.230746
  C            4.243117        3.762162       26.511428
  C            4.202788        2.714428       27.604429
  O            2.977123        1.999403       27.546211
  H            3.419608        4.474434       26.627459
  H            5.188666        4.311139       26.532255
  H            4.125332        3.296938       25.527250
  H            4.294315        3.174649       28.592918
  H            5.021119        1.999366       27.479669
  H            2.257063        2.641567       27.667636
  C           35.997708        4.627738       18.031025
  C           34.584575        4.827228       18.538255
  O           33.907198        5.775846       17.726967
  H           36.555432        5.569621       18.058634
  H           36.528112        3.886938       18.635806
  H           35.989199        4.293264       16.988448
  H           34.585543        5.186133       19.571927
  H           34.027797        3.886432       18.500220
  H           34.403904        6.610460       17.774981
  C           32.923701       29.102267       12.113606
  C           34.272213       29.250375       11.440106
  O           34.099279       29.428719       10.041823
  H           32.385998       28.234918       11.716691
  H           33.038862       28.980502       13.194246
  H           32.298276       29.980096       11.920801
  H           34.893694       28.365408       11.607092
  H           34.802227       30.123178       11.832337
  H           33.636375       28.644272        9.701285
  C           22.811727       23.071243       26.143137
  C           21.687492       23.201881       27.149642
  O           20.463295       23.462597       26.478616
  H           22.922470       23.994266       25.564583
  H           23.759543       22.853685       26.643323
  H           22.597066       22.270803       25.427505
  H           21.883027       24.016998       27.852949
  H           21.573714       22.274806       27.718968
  H           20.571268       24.292672       25.983722
  C           26.363940       26.608027       25.258829
  C           26.071071       25.137976       25.041570
  O           25.539368       24.568470       26.228946
  H           27.092554       26.742505       26.065054
  H           26.759024       27.065706       24.347615
  H           25.455874       27.141644       25.558132
  H           26.979392       24.593172       24.766923
  H           25.335865       25.008173       24.242090
  H           26.203422       24.680142       26.930490
  C           11.499074       29.773031       33.655692
  C           11.654455       30.501268       32.336771
  O           11.084323       29.732238       31.287749
  H           12.003557       28.801738       33.623312
  H           11.918846       30.360289       34.477149
  H           10.442492       29.576141       33.864932
  H           12.709713       30.678998       32.108446
  H           11.141245       31.466707       32.369749
  H           11.553148       28.880737       31.260312
  C           11.351304        7.872821       13.088088
  C           10.094031        7.709290       13.916669
  O           10.082700        6.430388       14.534072
  H           11.401097        7.108773       12.305328
  H           11.383262        8.859996       12.618689
  H           12.242628        7.748206       13.711726
  H            9.198814        7.807194       13.295145
  H           10.052570        8.468229       14.703332
  H           10.110013        5.763303       13.827068
  C           29.194170       33.785283        6.675918
  C           29.344722       32.286212        6.520540
  O           30.212623       31.995658        5.434615
  H           28.773764       34.228326        5.767109
  H           28.541139       34.026222        7.519346
  H           30.169587       34.255746        6.837590
  H           28.376679       31.811812        6.333115
  H           29.773729       31.848590        7.426622
  H           29.818222       32.380035        4.633176
  C           31.085558        6.124082       20.143242
  C           32.458616        6.700014       20.420799
  O           33.155381        5.871845       21.340343
  H           30.499240        6.059430       21.065746
  H           30.541768        6.742068       19.423341
  H           31.167475        5.106958       19.746177
  H           32.384033        7.707170       20.841946
  H           33.044593        6.754154       19.498711
  H           32.631910        5.837871       22.159139
  C           16.820292       22.683439       24.842868
  C           16.707145       23.001796       23.366430
  O           15.447644       23.598680       23.093866
  H           16.032474       21.987902       25.150329
  H           17.792231       22.237820       25.072280
  H           16.696084       23.590660       25.443232
  H           16.804801       22.095672       22.760878
  H           17.489803       23.704100       23.065163
  H           14.759435       22.963574       23.355807
  C           23.862620       23.742558       31.593731
  C           24.948010       23.368770       32.581776
  O           25.898542       22.516866       31.959157
  H           23.343697       22.848670       31.232282
  H           23.130721       24.412498       32.053489
  H           24.293466       24.236944       30.716881
  H           24.527723       22.851218       33.449410
  H           25.470310       24.263307       32.933277
  H           25.426862       21.721213       31.659060
  C           19.989595       30.193521       25.709480
  C           20.555747       31.598264       25.723408
  O           19.505504       32.545980       25.597996
  H           19.457210       30.000051       24.772412
  H           20.784942       29.451461       25.821923
  H           19.265351       30.061978       26.520084
  H           21.261563       31.745198       24.900290
  H           21.078534       31.790998       26.664733
  H           19.053460       32.372718       24.754646
  C           14.420001       15.427479       28.935141
  C           14.220195       14.803855       30.300862
  O           14.542657       15.743861       31.315413
  H           15.460772       15.740109       28.800910
  H           14.159801       14.720958       28.142048
  H           13.801662       16.324637       28.827078
  H           14.854276       13.920889       30.425773
  H           13.177497       14.501570       30.434843
  H           15.473135       15.998847       31.193770
  C            8.162678       20.454799       16.477074
  C            7.334313       20.598871       17.736867
  O            7.068593       19.318941       18.291913
  H            7.630731       19.856039       15.730429
  H            8.390163       21.433699       16.045939
  H            9.102358       19.935119       16.691192
  H            6.382028       21.094800       17.525920
  H            7.872854       21.189430       18.483701
  H            6.581773       18.805471       17.624860
  C           28.726935       26.545380       22.372574
  C           29.200818       25.121654       22.166507
  O           30.618757       25.068760       22.226146
  H           29.132013       27.204167       21.597413
  H           27.635097       26.600615       22.345921
  H           29.077735       26.932736       23.334763
  H           28.875511       24.736335       21.195428
  H           28.801923       24.468501       22.948057
  H           30.963444       25.644332       21.522221
  C           28.077356       23.485639        8.968452
  C           28.314591       24.788745        9.703065
  O           28.776127       25.779763        8.796546
  H           29.002926       23.128484        8.505072
  H           27.705430       22.715793        9.650274
  H           27.350559       23.625091        8.161462
  H           29.059175       24.663023       10.494948
  H           27.385886       25.147173       10.156477
  H           29.606085       25.456431        8.406382
  C           27.856856       13.523745       33.308160
  C           28.990037       14.250354       34.002395
  O           29.835523       14.863024       33.039745
  H           28.245876       12.746205       32.642535
  H           27.186599       13.059808       34.037125
  H           27.279362       14.215541       32.686202
  H           29.587363       13.560319       34.606004
  H           28.597958       15.032435       34.659030
  H           30.186287       14.159376       32.467515
  C           29.230315       32.918066       35.455150
  C           28.647999       31.621588       34.931628
  O           29.118806       30.529678       35.708146
  H           30.323874       32.900342       35.402469
  H           28.864044       33.771330       34.877518
  H           28.964609       33.062551       36.507499
  H           28.930752       31.457685       33.887368
  H           27.556096       31.639313       34.994704
  H           30.088602       30.516632       35.637945
  C           26.024040       21.661944       34.956786
  C           25.111015       20.477994       34.714561
  O           25.849942       19.401799       34.155368
  H           26.475393       22.000984       34.018546
  H           25.472958       22.494407       35.403088
  H           26.846800       21.383893       35.623619
  H           24.300344       20.741363       34.028456
  H           24.669541       20.136250       35.655229
  H           26.229994       19.712137       33.315812
  C           18.887489        9.990695       33.167847
  C           19.424285        9.228560       34.361590
  O           18.420882        8.366345       34.877993
  H           18.021643       10.597154       33.453292
  H           19.654163       10.647738       32.747872
  H           18.548929        9.298883       32.389588
  H           19.741082        9.913132       35.154239
  H           20.283047        8.616715       34.070525
  H           17.666448        8.919918       35.142550
  C            3.849007        6.641993       15.952485
  C            2.681377        7.231014       16.716498
  O            3.148311        8.195561       17.648446
  H            4.551537        6.153325       16.635578
  H            3.504343        5.908494       15.218279
  H            4.405531        7.428760       15.432685
  H            2.135304        6.453642       17.259442
  H            1.986780        7.726440       16.031931
  H            3.756838        7.743870       18.257768
  C           29.958782       30.335768       28.563488
  C           30.382249       29.022364       27.939254
  O           29.424862       28.015039       28.231852
  H           29.877723       30.239034       29.651162
  H           30.677995       31.126715       28.333254
  H           28.972065       30.636468       28.196227
  H           31.356538       28.702415       28.320941
  H           30.452873       29.120375       26.852078
  H           29.376439       27.928764       29.199227
  C           23.025060       33.431558       15.514041
  C           22.553250       32.312393       14.609117
  O           21.448411       32.750171       13.831564
  H           22.224663       33.743970       16.192808
  H           23.886907       33.115401       16.108294
  H           23.304515       34.311325       14.925120
  H           22.247958       31.438324       15.192291
  H           23.352332       32.009582       13.926242
  H           20.740722       33.007751       14.446733
  C            6.671413       33.040537       19.846914
  C            5.325482       33.714642       19.679363
  O            5.504388       35.051889       19.235888
  H            7.281538       33.572371       20.584384
  H            6.550312       32.003623       20.172517
  H            7.228528       33.052983       18.904375
  H            4.773239       33.728756       20.623884
  H            4.722660       33.186201       18.935117
  H            6.032595       35.515438       19.907991
  C           19.330909       13.077300       22.003196
  C           19.221571       13.940702       23.242795
  O           19.723971       13.237544       24.369768
  H           18.753937       12.154321       22.122250
  H           18.962964       13.611093       21.122541
  H           20.371007       12.782376       21.829620
  H           18.181198       14.218381       23.437243
  H           19.806806       14.857161       23.123842
  H           19.191681       12.430293       24.472803
  C           10.545532        7.121782       18.715262
  C            9.436976        6.905596       19.724416
  O            9.189780        8.107912       20.438723
  H           11.470977        7.424921       19.215883
  H           10.736975        6.208682       18.144761
  H           10.281988        7.925264       18.019652
  H            9.704104        6.121141       20.438953
  H            8.511829        6.612215       19.219862
  H           10.014377        8.354984       20.891048
  C           25.458270       18.195541       11.291668
  C           24.457745       17.679928       10.278200
  O           23.228350       18.378323       10.411391
  H           25.085685       18.051576       12.311186
  H           26.416727       17.678705       11.191100
  H           25.620144       19.270513       11.160729
  H           24.271495       16.610958       10.419283
  H           24.829179       17.834109        9.260944
  H           22.901825       18.227351       11.314825
  C           20.333112       22.476628        6.453349
  C           21.629776       23.250244        6.572524
  O           21.454292       24.360726        7.440245
  H           19.539055       23.112233        6.047835
  H           20.456030       21.607767        5.800781
  H           19.996221       22.135371        7.437707
  H           21.959538       23.616540        5.595603
  H           22.417958       22.614858        6.986769
  H           20.759261       24.923815        7.058846
  C           35.618769       21.270960        5.192910
  C           35.845622       22.739959        5.483774
  O           34.620437       23.450371        5.378218
  H           35.223470       21.133270        4.181109
  H           36.550735       20.706530        5.286350
  H           34.879776       20.851165        5.883254
  H           36.564247       23.172805        4.781269
  H           36.231430       22.874173        6.498508
  H           34.290760       23.333026        4.470944
  C           28.398195       17.822134       25.014296
  C           28.739519       18.522229       26.313291
  O           30.109917       18.894909       26.318135
  H           29.004306       16.918636       24.890675
  H           27.341182       17.543034       24.987837
  H           28.614838       18.470314       24.158820
  H           28.549602       17.871013       27.171860
  H           28.138956       19.429180       26.428661
  H           30.635149       18.081866       26.224889
  C           18.659433       12.168433       31.190177
  C           18.117471       13.070880       30.101191
  O           16.721335       12.861083       29.947257
  H           18.491917       11.115778       30.939540
  H           19.731588       12.329852       31.332654
  H           18.144061       12.355927       32.137886
  H           18.610165       12.871440       29.144757
  H           18.278089       14.121596       30.359539
  H           16.589730       11.927655       29.708518
  C           10.058605       10.131076       26.021019
  C            8.951892       10.803946       25.235872
  O            9.045531       10.449299       23.863879
  H           11.040687       10.440468       25.648522
  H            9.990531       10.381136       27.083426
  H           10.003916        9.043242       25.909042
  H            9.015437       11.892884       25.322286
  H            7.972604       10.485157       25.604538
  H            9.914616       10.745126       23.543285
  C           12.267831        6.799270       33.678101
  C           11.581300        7.880778       32.869992
  O           10.254333        8.068980       33.339721
  H           11.730021        5.849602       33.589483
  H           13.297303        6.653535       33.339249
  H           12.278639        7.060980       34.741258
  H           11.543958        7.614313       31.809383
  H           12.115922        8.829986       32.968631
  H            9.785011        7.223283       33.239038
  C           23.429130        8.003228       27.035664
  C           22.285097        8.907821       26.627102
  O           21.280387        8.902970       27.630815
  H           23.079474        6.974603       27.172164
  H           24.219577        8.008767       26.279995
  H           23.852050        8.325357       27.992891
  H           21.840612        8.576803       25.683624
  H           22.636335        9.936060       26.501000
  H           20.968125        7.987255       27.728597
  C           15.037140       20.396846       16.864564
  C           14.537837       18.984574       16.640495
  O           14.036385       18.448560       17.856283
  H           15.841257       20.409759       17.607660
  H           15.411860       20.830301       15.933127
  H           14.234440       21.032180       17.253068
  H           15.341369       18.337294       16.276275
  H           13.728377       18.976915       15.904791
  H           14.765079       18.450645       18.500181
  C           12.878995       15.443290       18.834804
  C           13.499777       14.425948       17.900101
  O           14.862671       14.220566       18.242510
  H           13.402773       16.402393       18.765963
  H           11.823818       15.600633       18.594559
  H           12.959590       15.110498       19.874836
  H           13.445813       14.763593       16.860691
  H           12.980022       13.466663       17.978667
  H           15.317688       15.076029       18.160376
  C            8.060621       21.438743        7.899581
  C            6.554391       21.597187        7.913361
  O            5.955139       20.482933        8.558529
  H            8.349269       20.529531        7.362015
  H            8.538652       22.297591        7.420271
  H            8.447167       21.341846        8.919437
  H            6.157920       21.669020        6.896040
  H            6.269533       22.501264        8.459297
  H            6.206067       19.686143        8.060770
  C           17.699325       17.811579       20.834040
  C           17.502054       17.316905       19.416152
  O           16.813156       16.075048       19.426915
  H           18.286405       17.093726       21.416263
  H           18.214407       18.776201       20.842338
  H           16.735312       17.920499       21.341708
  H           18.462885       17.181174       18.910513
  H           16.907227       18.031987       18.840492
  H           17.353867       15.444238       19.932202
  C           32.374923       18.716662       31.153344
  C           31.715804       18.444891       32.489655
  O           32.037991       17.134395       32.932036
  H           32.030754       18.001105       30.399363
  H           32.149861       19.728972       30.806288
  H           33.461170       18.601557       31.229044
  H           30.627658       18.533048       32.415780
  H           32.069205       19.155545       33.242399
  H           31.711597       16.510169       32.261654
  C           35.602875       11.316133       17.869000
  C           34.201469       11.610121       17.375386
  O           34.197999       11.715602       15.959134
  H           36.291382       12.116504       17.578610
  H           35.619646       11.215421       18.957783
  H           35.982781       10.391620       17.421943
  H           33.824689       12.546351       17.798234
  H           33.518681       10.803981       17.659083
  H           34.799753       12.440304       15.717676
  C           21.773855       21.823610       12.020356
  C           21.855489       22.894044       13.088781
  O           23.167452       23.435948       13.133501
  H           22.477937       21.011928       12.231074
  H           20.764324       21.407322       11.961832
  H           22.044870       22.234185       11.042147
  H           21.610656       22.485058       14.073706
  H           21.157705       23.707491       12.869816
  H           23.778588       22.707746       13.338046
  C            7.059957       26.634349       24.361783
  C            6.227636       25.373193       24.465474
  O            4.882238       25.648595       24.103585
  H            6.672253       27.410030       25.030338
  H            8.103399       26.435333       24.621581
  H            7.019238       27.040374       23.345713
  H            6.242814       24.975556       25.484760
  H            6.612146       24.604077       23.789338
  H            4.546723       26.325586       24.715727
  C           19.956910       29.449740        8.750673
  C           21.185860       28.567958        8.672147
  O           20.921433       27.438956        7.852185
  H           19.112521       28.899609        9.178838
  H           20.149520       30.333125        9.365819
  H           19.651129       29.774381        7.750664
  H           21.482494       28.218648        9.665768
  H           22.024393       29.117974        8.235237
  H           20.181740       26.951860        8.253676
  C           12.897179       12.654263       26.796715
  C           14.403409       12.603297       26.947365
  O           14.989852       13.750946       26.350798
  H           12.614576       12.678753       25.739125
  H           12.428746       11.784658       27.266004
  H           12.494715       13.563658       27.254902
  H           14.815695       11.709525       26.469366
  H           14.682080       12.588570       28.005037
  H           14.744633       13.749866       25.409804
  C           32.489497       17.410683       16.160945
  C           33.869382       16.933410       15.758265
  O           34.036549       17.061769       14.353813
  H           31.714570       16.818370       15.663335
  H           32.350655       17.333731       17.242922
  H           32.338232       18.451860       15.857660
  H           34.018658       15.885461       16.035411
  H           34.640599       17.533511       16.249844
  H           33.353263       16.517724       13.926333
  C            2.826199       15.341026       12.450005
  C            3.127412       15.180234       13.925620
  O            4.183768       16.051228       14.302963
  H            3.707504       15.099962       11.846555
  H            2.002887       14.688295       12.146734
  H            2.558363       16.377989       12.222225
  H            3.420783       14.151698       14.156569
  H            2.247735       15.431049       14.525458
  H            4.963028       15.814256       13.771736
  C           29.900850        4.244118       15.504598
  C           29.437649        4.250373       14.062575
  O           28.903789        5.523650       13.729913
  H           29.066128        4.458069       16.180191
  H           30.330270        3.274595       15.771985
  H           30.652718        5.022500       15.671120
  H           28.667294        3.491707       13.894440
  H           30.275947        4.045743       13.390318
  H           28.154056        5.691972       14.325875
  C            5.545849       12.575790       13.013306
  C            7.054527       12.621393       13.139144
  O            7.437722       13.683460       14.000586
  H            5.163470       13.514391       12.598848
  H            5.233344       11.752012       12.365539
  H            5.080889       12.449156       13.996509
  H            7.525413       12.773427       12.163213
  H            7.431840       11.685909       13.562287
  H            7.106436       14.510704       13.611329
  C            6.591283       21.000263       22.275801
  C            7.233406       21.119168       20.909213
  O            6.869321       22.353076       20.307698
  H            5.499953       21.038814       22.195347
  H            6.875441       20.061711       22.759791
  H            6.892882       21.834916       22.917131
  H            6.916434       20.302051       20.254126
  H            8.323542       21.089840       20.994596
  H            5.900298       22.365415       20.227422
  C           28.962588       22.042589       24.751273
  C           28.654856       21.649301       23.321361
  O           27.256873       21.732260       23.085419
  H           28.451540       21.376690       25.454389
  H           30.038077       21.999820       24.944577
  H           28.605858       23.057131       24.957088
  H           28.985704       20.626808       23.115601
  H           29.159345       22.322451       22.622144
  H           26.818484       21.123862       23.704508
  C            4.002445        5.496642       19.801423
  C            2.501161        5.656315       19.922554
  O            2.118214        6.963505       19.520667
  H            4.521333        6.221509       20.437257
  H            4.312051        4.488831       20.091825
  H            4.328155        5.684650       18.773085
  H            2.171137        5.494933       20.953248
  H            1.986503        4.937046       19.278873
  H            2.572842        7.594608       20.104299
  C           26.136755       28.065763       18.301942
  C           25.873205       29.184562       19.288276
  O           27.092915       29.825609       19.632183
  H           26.811475       27.319570       18.734274
  H           25.204395       27.572140       18.013997
  H           26.625171       28.452924       17.401681
  H           25.408197       28.801255       20.201586
  H           25.206577       29.932633       18.849479
  H           27.674443       29.155278       20.029782
  C           15.660892       22.282500       12.460283
  C           16.798017       23.118790       13.009454
  O           16.286684       24.304017       13.601638
  H           15.103888       22.838701       11.699134
  H           16.037071       21.357251       12.015000
  H           14.950064       22.030088       13.253961
  H           17.499378       23.396546       12.216841
  H           17.346092       22.563452       13.776109
  H           15.809976       24.794846       12.910667
  C           18.534943       19.824379       35.166108
  C           17.535592       18.754854       35.555259
  O           16.277903       19.347920       35.844044
  H           18.668956       20.543688       35.980721
  H           19.505300       19.381871       34.924310
  H           18.177082       20.388756       34.298740
  H           17.874573       18.203163       36.437313
  H           17.397267       18.043750       34.735660
  H           16.409315       19.970521       36.579369
  C           32.387506       10.983362       35.900734
  C           31.843332       12.156564       35.112384
  O           31.390974       13.169232       35.999390
  H           31.612376       10.558304       36.546847
  H           32.755577       10.200889       35.231307
  H           33.205608       11.304338       36.553877
  H           31.008257       11.848377       34.476018
  H           32.622933       12.584366       34.475396
  H           30.692296       12.782326       36.554148
  C            5.066538        8.954113       11.958575
  C            6.484083        9.409289       12.236791
  O            7.399950        8.377374       11.900271
  H            4.821984        8.065983       12.550504
  H            4.349340        9.744400       12.197206
  H            4.950590        8.676778       10.905696
  H            6.614444        9.663937       13.292940
  H            6.727843       10.290791       11.636724
  H            7.181373        7.602221       12.445217
  C            3.004161       18.375394        9.687393
  C            3.679918       19.730531        9.718701
  O            2.928100       20.629242       10.521193
  H            1.995854       18.455285        9.267995
  H            3.580081       17.666307        9.086241
  H            2.896602       17.975014       10.700823
  H            3.767941       20.148640        8.711364
  H            4.683092       19.648266       10.146977
  H            2.042099       20.703030       10.127287
  C           34.507349       16.763654       11.485342
  C           33.767517       15.454498       11.304279
  O           32.643189       15.645538       10.457935
  H           33.855203       17.517260       11.938933
  H           35.386364       16.629944       12.121994
  H           34.828529       17.161770       10.517220
  H           33.421034       15.063209       12.265597
  H           34.419189       14.707216       10.842287
  H           32.065918       16.303568       10.881442
  C           34.424576       15.684966       23.441050
  C           35.919590       15.445833       23.483167
  O           36.554851       16.475052       24.227519
  H           34.199524       16.646006       22.967008
  H           33.918264       14.891176       22.884797
  H           34.012213       15.725632       24.454566
  H           36.343064       15.429406       22.474361
  H           36.140863       14.489482       23.965842
  H           36.360475       17.319151       23.785572
  C           22.075398       11.415291       23.262232
  C           22.043013       10.092265       22.525632
  O           21.131565       10.164114       21.438891
  H           21.084262       11.663437       23.655976
  H           22.785712       11.381725       24.093014
  H           22.361026       12.226597       22.584654
  H           21.733458        9.280265       23.190555
  H           23.032496        9.852457       22.125682
  H           20.254131       10.367941       21.805179
  C            9.888449       11.204109       19.689631
  C            9.052827       12.404961       20.081695
  O            9.750492       13.603011       19.773726
  H           10.839919       11.201087       20.231531
  H            9.357747       10.272609       19.905355
  H           10.130180       11.234915       18.622143
  H            8.828692       12.394439       21.152649
  H            8.107475       12.409647       19.531393
  H           10.583968       13.593892       20.274563
  C            8.086344       26.313481        8.423422
  C            8.244342       24.807337        8.447750
  O            8.303380       24.347241        9.790036
  H            8.932428       26.799494        8.920307
  H            8.022614       26.682292        7.395906
  H            7.183432       26.614933        8.964522
  H            9.158407       24.500129        7.930642
  H            7.392782       24.325135        7.959006
  H            9.068330       24.773631       10.212702
  C           34.140662       28.286008       24.636956
  C           34.666784       26.905691       24.302376
  O           34.886719       26.167809       25.495718
  H           34.857955       28.833857       25.256887
  H           33.950248       28.861836       23.726991
  H           33.211654       28.215231       25.212150
  H           35.608890       26.968107       23.749355
  H           33.943544       26.358113       23.691125
  H           35.537474       26.657251       26.027289
  C           21.701347       34.436970       34.728116
  C           21.194696       35.816230       34.360733
  O           22.150160       36.483985       33.549501
  H           22.641974       34.505635       35.284414
  H           20.969031       33.902734       35.339817
  H           21.906438       33.849290       33.827293
  H           21.011691       36.418469       35.255780
  H           20.260115       35.743168       33.797027
  H           22.973474       36.552501       34.062399
  C           29.361163        8.256985        9.483620
  C           30.863851        8.159211        9.321163
  O           31.482868        9.339017        9.812877
  H           28.966674        9.113823        8.927591
  H           28.870205        7.348248        9.124410
  H           29.096494        8.410563       10.534942
  H           31.137473        8.031183        8.269483
  H           31.255347        7.307935        9.885613
  H           31.135949       10.088101        9.298949
  C           18.103419        3.745651       16.071715
  C           16.699577        3.907437       15.526669
  O           15.897572        2.801855       15.915747
  H           18.564570        2.829783       15.687674
  H           18.729951        4.597985       15.794483
  H           18.085414        3.659520       17.163123
  H           16.707269        3.968556       14.434196
  H           16.238826        4.818258       15.919938
  H           16.309663        1.998934       15.553666
  C           12.862111       30.165464       28.924913
  C           11.388550       30.395369       28.660743
  O           10.987767       31.645581       29.202266
  H           13.066157       30.159482       30.000687
  H           13.190626       29.213241       28.499210
  H           13.461727       30.972720       28.491656
  H           10.780822       29.605734       29.112888
  H           11.190206       30.410196       27.585110
  H           11.158894       31.618973       30.159141
  C           21.028161       19.471497        9.551021
  C           21.176919       18.949485        8.137020
  O           22.368263       18.184601        8.024960
  H           21.876867       20.109130        9.819506
  H           20.106063       20.049517        9.658268
  H           21.012630       18.643771       10.267639
  H           21.218908       19.772473        7.417146
  H           20.332208       18.305433        7.875857
  H           23.113283       18.767825        8.249457
  C           30.249498       29.029827       15.087276
  C           29.969579       30.418223       14.550597
  O           31.146622       30.960268       13.969510
  H           31.031984       29.061172       15.852584
  H           29.347776       28.591428       15.523827
  H           30.611318       28.373818       14.288746
  H           29.631784       31.086690       15.348305
  H           29.194322       30.381585       13.779766
  H           31.826046       30.997682       14.664194
  C           19.432865       27.190554       13.662008
  C           20.127348       25.844627       13.675998
  O           19.297270       24.863968       13.070866
  H           18.489112       27.144905       14.215368
  H           20.066544       27.960951       14.110130
  H           19.186841       27.486502       12.636922
  H           20.353591       25.530271       14.699368
  H           21.064815       25.891706       13.114318
  H           18.471348       24.822830       13.582495
  C           11.170399       17.252929       20.517288
  C           10.701039       18.430385       21.346337
  O           10.436040       18.011804       22.677303
  H           10.405585       16.469833       20.489365
  H           11.394776       17.562259       19.492670
  H           12.068023       16.805701       20.956799
  H            9.789351       18.866917       20.927341
  H           11.471306       19.206347       21.379751
  H            9.744070       17.329732       22.637817
  C            7.939929       26.627812       18.507137
  C            9.198711       26.940931       19.289089
  O           10.199995       25.975006       19.003911
  H            7.554295       25.638457       18.774388
  H            7.163692       27.372717       18.703210
  H            8.148771       26.608427       17.432464
  H            9.003255       26.936860       20.365690
  H            9.586175       27.925776       19.012505
  H            9.850120       25.105155       19.261883
  C            9.003260       35.592126       19.365431
  C            9.775998       35.786319       18.077336
  O            9.011123       36.560081       17.164559
  H            8.058700       35.071854       19.175466
  H            9.586005       35.011504       20.085958
  H            8.749804       36.559125       19.812180
  H           10.010813       34.824413       17.611622
  H           10.714276       36.314680       18.269727
  H            8.184309       36.077982       16.992622
  C           25.899412       31.893165        8.055145
  C           24.954504       33.071525        7.942716
  O           25.535591       34.084037        7.133974
  H           26.847457       32.199241        8.509557
  H           25.459275       31.096959        8.661946
  H           26.136085       31.493156        7.063736
  H           24.733437       33.492817        8.928076
  H           24.012384       32.763946        7.479736
  H           26.366704       34.357288        7.558461
  C            6.566753       14.584130       26.885056
  C            5.484614       14.226981       25.887336
  O            4.204092       14.442225       26.462522
  H            6.482156       13.966725       27.785398
  H            7.560134       14.439453       26.451311
  H            6.467950       15.626998       27.203767
  H            5.561409       13.178637       25.583416
  H            5.566542       14.852209       24.993511
  H            4.137409       13.875531       27.249933
  C           22.965087       26.377156       26.752097
  C           23.790171       25.815442       27.891279
  O           23.107695       26.001912       29.122686
  H           22.789429       27.448711       26.893077
  H           23.469882       26.226481       25.793791
  H           21.982371       25.895752       26.714250
  H           24.764456       26.309865       27.951319
  H           23.955441       24.743160       27.751839
  H           22.974191       26.957701       29.242045
  C           33.288593       32.501448       12.713428
  C           32.817022       32.578048       11.276147
  O           32.557268       33.928608       10.922000
  H           32.526694       32.898217       13.392432
  H           33.508981       31.468531       12.996949
  H           34.189115       33.107722       12.856271
  H           31.902533       31.994896       11.131455
  H           33.584415       32.189703       10.600247
  H           31.867796       34.261469       11.521529
  C           24.121507       13.301499       26.206084
  C           23.283872       13.915075       25.103399
  O           21.903684       13.731268       25.383044
  H           23.924130       12.227753       26.290191
  H           25.187849       13.449193       26.013796
  H           23.871030       13.747983       27.173981
  H           23.510526       13.455760       24.136471
  H           23.476706       14.989222       25.028777
  H           21.740605       12.774186       25.437836
  C           33.129445        4.467080       13.989134
  C           34.352106        3.576984       13.906363
  O           34.108912        2.500325       13.012736
  H           32.263954        3.903082       14.352167
  H           33.306474        5.311201       14.661439
  H           32.865662        4.852413       12.998756
  H           34.606762        3.167499       14.888586
  H           35.212083        4.141439       13.534376
  H           33.349663        1.999567       13.356807
  C           17.387588       36.007525       26.774726
  C           16.882715       34.597842       26.546867
  O           17.771971       33.896503       25.689981
  H           17.457987       36.551370       25.826972
  H           16.721805       36.556290       27.446635
  H           18.393077       35.991335       27.207904
  H           15.888331       34.606016       26.090332
  H           16.822811       34.054798       27.494527
  H           17.810948       34.381197       24.847868
  C           19.025107       20.040737        2.801335
  C           17.820122       20.951009        2.917265
  O           16.980772       20.512516        3.975623
  H           18.714158       19.011446        2.594380
  H           19.690632       20.374959        2.000557
  H           19.585025       20.021079        3.742089
  H           17.241114       20.955929        1.988817
  H           18.134229       21.976270        3.133417
  H           16.699351       19.604769        3.769709
  C           34.550773       30.700014       29.002963
  C           34.366652       30.034820       27.654765
  O           35.571655       29.394714       27.260887
  H           35.345122       31.452317       28.958129
  H           33.625777       31.184040       29.328501
  H           34.850452       29.965215       29.757401
  H           34.091842       30.767405       26.889854
  H           33.579032       29.277467       27.705924
  H           36.262604       30.076987       27.208965
  C           29.255062       17.111735       19.421715
  C           29.095983       18.414726       20.177314
  O           28.501789       18.171631       21.444099
  H           28.282178       16.634914       19.263286
  H           29.726946       17.279826       18.449633
  H           29.865815       16.406254       19.994594
  H           28.465369       19.115864       19.622317
  H           30.070628       18.883239       20.341961
  H           27.632822       17.764420       21.287003
  C           32.053445       25.480630       11.442497
  C           32.805405       26.225795       10.359304
  O           31.966795       27.213742        9.778270
  H           31.168617       24.985645       11.028939
  H           32.691373       24.726491       11.911747
  H           31.699600       26.173980       12.212544
  H           33.140234       25.542619        9.572888
  H           33.683138       26.726688       10.777916
  H           31.195055       26.758107        9.400886
  C           16.207781       34.477381        4.087497
  C           15.807436       35.933899        3.976586
  O           14.457743       36.098730        4.386544
  H           15.572733       33.851908        3.451525
  H           17.250780       34.336017        3.790780
  H           16.080208       34.119893        5.114551
  H           15.908023       36.291362        2.947318
  H           16.437683       36.554250        4.620402
  H           13.905143       35.551509        3.802775
  C           15.421583       29.808712       32.971833
  C           15.098861       29.311027       34.365455
  O           15.364081       30.330243       35.318221
  H           16.477314       30.089085       32.895778
  H           15.206877       29.040307       32.223951
  H           14.836716       30.704213       32.737481
  H           15.698448       28.430847       34.616590
  H           14.041493       29.040972       34.440218
  H           16.307439       30.556345       35.250706
  C           13.214049        9.893402       14.303182
  C           13.662410       11.325500       14.508343
  O           15.027466       11.463847       14.141757
  H           13.809572        9.209661       14.917032
  H           12.159216        9.773686       14.565609
  H           13.356120        9.590834       13.260502
  H           13.547238       11.626926       15.553890
  H           13.071710       12.004405       13.886485
  H           15.544764       10.864191       14.706044
  C           19.441594       33.165580       28.485407
  C           20.924435       33.423392       28.654929
  O           21.130839       34.471962       29.590240
  H           18.932088       34.062952       28.119225
  H           19.266020       32.348708       27.779881
  H           18.982936       32.908675       29.445899
  H           21.385066       33.705764       27.703417
  H           21.428315       32.527792       29.029829
  H           20.687875       35.265263       29.243742
  C           18.982734       28.922891       35.910722
  C           20.399417       28.466282       35.630468
  O           20.383753       27.334784       34.772346
  H           18.408352       28.126890       36.395933
  H           18.978027       29.804574       36.557626
  H           18.464463       29.165771       34.977278
  H           20.915679       28.197307       36.556975
  H           20.967157       29.260615       35.137263
  H           19.885625       26.631802       35.223221
  C           14.159532        2.659915       28.341154
  C           13.719936        4.101276       28.493654
  O           12.913525        4.242454       29.654118
  H           13.292029        1.998910       28.243826
  H           14.795756        2.537446       27.460192
  H           14.713193        2.330267       29.226425
  H           13.143804        4.430117       27.623467
  H           14.588771        4.757272       28.600144
  H           12.139867        3.663401       29.545698
  C           20.398309       27.933009       28.130551
  C           21.227878       29.125742       28.558603
  O           20.954817       29.444984       29.915227
  H           19.329472       28.149928       28.227993
  H           20.609407       27.663827       27.091873
  H           20.607347       27.068967       28.769804
  H           21.005601       30.000711       27.940289
  H           22.294848       28.901963       28.468923
  H           20.006982       29.651519       29.982724
  C           21.338304        8.412583       10.010351
  C           21.321839        9.610032       10.937643
  O           20.514145       10.639776       10.386133
  H           21.745336        8.686633        9.031483
  H           21.943346        7.603545       10.428983
  H           20.321741        8.043010        9.840267
  H           22.332146       10.000816       11.092103
  H           20.905855        9.334674       11.911132
  H           20.897199       10.884048        9.526363
  C           33.069888       25.305333       14.637216
  C           33.765598       23.993230       14.934533
  O           33.945089       23.256212       13.733911
  H           32.087164       25.129173       14.187569
  H           32.938836       25.892807       15.550218
  H           33.648420       25.893724       13.917488
  H           33.180484       23.388328       15.633836
  H           34.750653       24.173366       15.374717
  H           33.064238       23.092956       13.355688
  C            2.961094        9.804407       14.422107
  C            4.000215       10.254975       15.427712
  O            3.558827       11.432933       16.086876
  H            2.789424       10.580362       13.668857
  H            3.278888        8.887993       13.917069
  H            2.000916        9.621975       14.915755
  H            4.956004       10.463877       14.937694
  H            4.161998        9.481232       16.183816
  H            3.427245       12.116822       15.408211
  C           12.612321       21.165411       12.328132
  C           11.969571       21.143865       13.699421
  O           12.937345       21.446562       14.693751
  H           13.417093       20.425500       12.266211
  H           11.875858       20.950245       11.548903
  H           13.062962       22.143295       12.129190
  H           11.539139       20.161419       13.915795
  H           11.172672       21.890706       13.760469
  H           13.635832       20.772324       14.637865
  C            5.614320       32.834750       23.192144
  C            5.953158       34.191305       23.774356
  O            5.404478       35.218821       22.961912
  H            6.023441       32.734175       22.181468
  H            6.016074       32.031371       23.815882
  H            4.529507       32.710712       23.110239
  H            7.036461       34.332724       23.835557
  H            5.534766       34.291608       24.780057
  H            5.789396       35.127180       22.073631
  C           35.858510       26.807500       20.579206
  C           35.134981       28.112007       20.841487
  O           34.221548       28.380642       19.787742
  H           36.417642       26.857244       19.639068
  H           36.554530       26.577671       21.390752
  H           35.144030       25.983563       20.481444
  H           35.841113       28.944631       20.915002
  H           34.570043       28.055170       21.776452
  H           34.733944       28.438827       18.963322
  C           34.621216       22.194097       26.009522
  C           34.142678       20.858675       25.478794
  O           33.332505       21.055551       24.329113
  H           33.771970       22.827017       26.287289
  H           35.260701       22.058739       26.886226
  H           35.183433       22.734939       25.241203
  H           33.558017       20.323250       26.232970
  H           34.993389       20.233004       25.193537
  H           32.574850       21.604136       24.594852
  C           27.846508       17.454876       30.519975
  C           28.686779       16.441474       31.268962
  O           28.150902       16.231480       32.567286
  H           27.832886       18.413297       31.049320
  H           28.236814       17.615653       29.511171
  H           26.807750       17.116185       30.447988
  H           29.721020       16.784961       31.367211
  H           28.690196       15.482810       30.742182
  H           28.161033       17.086473       33.030415
  C           33.214348        3.968454        3.375019
  C           33.675924        5.173251        4.168388
  O           34.743454        4.806698        5.030320
  H           32.864042        3.175543        4.044004
  H           32.402631        4.237992        2.693596
  H           34.041936        3.550783        2.792299
  H           32.860291        5.580907        4.773243
  H           34.033934        5.959327        3.497225
  H           34.412851        4.115136        5.628690
  C           34.698560       25.058428       34.522470
  C           35.262641       25.201500       35.920814
  O           34.707058       26.345149       36.553508
  H           34.935689       25.939697       33.917410
  H           35.104429       24.171990       34.027121
  H           33.607012       24.978065       34.553717
  H           36.351365       25.308036       35.895905
  H           35.015614       24.323682       36.524932
  H           34.940033       27.120420       36.014730
  C           18.855543        5.824091       12.967563
  C           18.227536        7.090330       13.511869
  O           19.203722        8.118295       13.597036
  H           19.664626        5.481503       13.621000
  H           18.112335        5.026670       12.880177
  H           19.297388        6.005897       11.982356
  H           17.806113        6.922795       14.507673
  H           17.426269        7.434669       12.851605
  H           19.906146        7.806867       14.193037
  C           22.433810       18.339482       19.669110
  C           21.586803       18.752809       20.854759
  O           22.421905       19.139911       21.936268
  H           23.078558       17.493810       19.930070
  H           21.804896       18.053904       18.821298
  H           23.092089       19.158656       19.361644
  H           20.944382       17.930480       21.183941
  H           20.951163       19.603708       20.593078
  H           22.975613       18.374716       22.167542
  C           15.649318       14.534758       21.645488
  C           15.239732       14.242035       23.073975
  O           14.042586       14.938574       23.387953
  H           15.823940       15.606519       21.504790
  H           16.561607       13.992152       21.382467
  H           14.853694       14.247871       20.950081
  H           16.019790       14.549761       23.776900
  H           15.056980       13.171926       23.208196
  H           14.217854       15.888386       23.275077
  C           17.421171       27.751648       25.664903
  C           17.908474       26.411695       25.153938
  O           19.327394       26.365006       25.191220
  H           17.811887       28.566853       25.047048
  H           16.328599       27.797616       25.658136
  H           17.776691       27.927225       26.685536
  H           17.578340       26.240340       24.124890
  H           17.523939       25.600694       25.779203
  H           19.659287       27.082865       24.625419
  C           16.104659        8.559235        7.714717
  C           15.731248        9.833333        8.443594
  O           14.943362        9.526499        9.584645
  H           15.207648        8.025359        7.384097
  H           16.726112        8.777284        6.841720
  H           16.651746        7.881810        8.378572
  H           15.161825       10.504794        7.793834
  H           16.629456       10.358900        8.780563
  H           14.143642        9.068614        9.274173
  C           24.316942       17.661319       31.387883
  C           24.692650       18.974924       30.734196
  O           24.072898       19.077864       29.460533
  H           24.643410       16.815874       30.773390
  H           24.773423       17.573781       32.377749
  H           23.229929       17.579150       31.490667
  H           25.776360       19.053191       30.604823
  H           24.356540       19.816991       31.346160
  H           24.385110       18.331228       28.921402
  C           17.336238       30.578789       23.119429
  C           17.697624       29.226506       22.540849
  O           19.008161       28.859575       22.946756
  H           18.035099       31.347275       22.773041
  H           16.322479       30.868676       22.829378
  H           17.400106       30.559758       24.212348
  H           17.660819       29.244845       21.447414
  H           17.003141       28.459913       22.896621
  H           19.618585       29.541349       22.617863
  C           10.687607       19.727476        8.638885
  C            9.531707       18.748956        8.659320
  O            9.921214       17.551467        9.315986
  H           11.545050       19.302593        8.106693
  H           10.398506       20.662300        8.150627
  H           11.022988       19.948905        9.657414
  H            9.207567       18.503051        7.643567
  H            8.680579       19.173102        9.199900
  H           10.671282       17.177415        8.822948
  C           25.344382       31.553660       23.867076
  C           25.608202       30.189058       23.265177
  O           25.001589       30.098169       21.984292
  H           24.268863       31.725929       23.979082
  H           25.819436       31.645710       24.847751
  H           25.726894       32.343854       23.212713
  H           25.205922       29.394948       23.901457
  H           26.683037       30.024498       23.146039
  H           24.046214       30.236088       22.101936
  C            5.033821       32.536640       27.316000
  C            5.185046       34.043571       27.298286
  O            6.456711       34.397512       26.774359
  H            5.806956       32.077370       27.940735
  H            4.052199       32.247795       27.701824
  H            5.153169       32.125588       26.308178
  H            5.092374       34.459256       28.306209
  H            4.416993       34.497987       26.665715
  H            7.131967       33.997356       27.348387
  C           27.668409       15.824281        9.480742
  C           29.010913       16.462864        9.191056
  O           29.265623       16.444548        7.794026
  H           27.652525       14.784332        9.138375
  H           27.449638       15.845385       10.551987
  H           26.869288       16.347799        8.945721
  H           29.817902       15.929232        9.702226
  H           29.019702       17.504224        9.525776
  H           29.265371       15.515094        7.508162
  C           18.227962        6.436088       30.397042
  C           18.010382        4.977678       30.743048
  O           16.968698        4.439090       29.941972
  H           17.316815        7.016423       30.575885
  H           19.039094        6.861714       30.994352
  H           18.473376        6.547811       29.335815
  H           17.739572        4.860397       31.796708
  H           18.919615        4.399627       30.554110
  H           16.163397        4.952849       30.124033
  C            3.090655       14.493454       33.857526
  C            2.995632       13.687414       32.578740
  O            3.922212       12.611696       32.613204
  H            4.097382       14.905990       33.981125
  H            2.371038       15.316867       33.853793
  H            2.897705       13.858458       34.728424
  H            3.212457       14.309884       31.705351
  H            1.991477       13.269137       32.463580
  H            4.811615       12.993748       32.705947
  C           17.811001        3.991341       27.464322
  C           18.679064        2.761397       27.297814
  O           18.831371        2.102291       28.546529
  H           18.264009        4.691658       28.173760
  H           17.670222        4.501668       26.507441
  H           16.830325        3.718980       27.868062
  H           19.670033        3.028746       26.918610
  H           18.218698        2.060086       26.595836
  H           19.249707        2.729978       29.160212
  C           24.861807        4.212446       10.767718
  C           25.311470        5.576521       10.286962
  O           26.460146        5.445941        9.462099
  H           25.652889        3.726499       11.348241
  H           23.967327        4.294220       11.391489
  H           24.642389        3.557549        9.918084
  H           25.557134        6.228701       11.130526
  H           24.522275        6.054725        9.699563
  H           27.158252        5.029156        9.995523
  C            6.382716        2.834718       20.855175
  C            6.619293        4.096234       21.659309
  O            6.050797        3.960397       22.953630
  H            5.310612        2.641230       20.745102
  H            6.829333        2.916960       19.860368
  H            6.812166        1.966340       21.365474
  H            6.170537        4.964863       21.167993
  H            7.691201        4.280962       21.775215
  H            5.097371        3.806295       22.840342
  C           24.834577       11.454246       19.268237
  C           25.151955       12.909961       19.540610
  O           24.663948       13.281571       20.821493
  H           23.753323       11.282991       19.291096
  H           25.218778       11.147578       18.291397
  H           25.274778       10.813193       20.039072
  H           24.693707       13.559050       18.788291
  H           26.233175       13.075205       19.526391
  H           23.701834       13.140367       20.820927
  C           22.919597       34.641270        5.565844
  C           22.701646       35.625804        6.695983
  O           23.772210       36.557894        6.740764
  H           23.854716       34.089635        5.708017
  H           22.094536       33.925918        5.507370
  H           23.001934       35.165940        4.608319
  H           22.643878       35.110718        7.659642
  H           21.771561       36.181548        6.545530
  H           24.592400       36.055610        6.884301
  C            6.665962       35.559736        3.898408
  C            7.464659       35.960804        5.121212
  O            7.924650       34.802296        5.801781
  H            5.797628       34.956863        4.183892
  H            6.318099       36.441684        3.353403
  H            7.273322       34.944793        3.226193
  H            6.856191       36.554471        5.810137
  H            8.336287       36.554728        4.831272
  H            7.143044       34.286388        6.063572
  C           11.199271       21.727616       35.854003
  C           10.217278       20.886511       35.065173
  O            9.292352       20.266123       35.946386
  H           11.757485       21.107698       36.563271
  H           11.909018       22.225904       35.187789
  H           10.671818       22.486609       36.441060
  H           10.735329       20.109054       34.495546
  H            9.654958       21.510666       34.364621
  H            9.800472       19.706643       36.558268
  C           17.086773       13.942062        3.489165
  C           15.808119       14.021244        4.297123
  O           16.041664       13.563864        5.621194
  H           17.451047       12.910577        3.441164
  H           16.927569       14.306712        2.470559
  H           17.876804       14.537131        3.958907
  H           15.021080       13.408302        3.847498
  H           15.452553       15.054315        4.350819
  H           16.347799       12.642698        5.563418
  C           18.251144       23.722127       34.794934
  C           17.796253       24.669784       35.885367
  O           17.143056       25.792512       35.311154
  H           18.950268       24.220799       34.115586
  H           18.742031       22.843193       35.221992
  H           17.399551       23.393333       34.190289
  H           18.645562       25.022792       36.478115
  H           17.090820       24.171014       36.556291
  H           17.780562       26.234209       34.724559
  C           26.920351       12.536273        4.301504
  C           27.341565       12.978100        2.915361
  O           26.272768       12.787858        1.999727
  H           26.646046       11.476219        4.303189
  H           27.727712       12.691910        5.022487
  H           26.037957       13.093949        4.632094
  H           28.207776       12.407076        2.567653
  H           27.605635       14.039614        2.915654
  H           26.052028       11.840822        1.999478
  C           35.496865       34.737832       21.257465
  C           34.282023       33.943173       20.825379
  O           34.064593       34.108492       19.431714
  H           35.355075       35.803984       21.052096
  H           35.687868       34.607798       22.326334
  H           36.383318       34.421058       20.698208
  H           33.386815       34.271817       21.361930
  H           34.431240       32.877764       21.023327
  H           33.923579       35.056508       19.267447
  C           19.679627       23.489784       10.368936
  C           20.542602       24.734488       10.372211
  O           19.930782       25.747071       11.157869
  H           18.691305       23.705122        9.949640
  H           20.145407       22.693948        9.781087
  H           19.520331       23.128733       11.390298
  H           20.685129       25.115998        9.356619
  H           21.525543       24.517709       10.800438
  H           19.062743       25.939344       10.763987
  C            8.763761       21.078793       27.870396
  C           10.006211       21.721466       28.451182
  O           10.551955       20.892211       29.466763
  H            8.004399       20.933866       28.645849
  H            8.340252       21.697822       27.074585
  H            8.996186       20.089165       27.463545
  H            9.776624       22.700410       28.882750
  H           10.765877       21.855872       27.675690
  H            9.873357       20.786733       30.155228
  C            8.219593        8.694185       31.289017
  C            7.040355        9.595869       30.988375
  O            7.495180       10.818837       30.427671
  H            8.899877        9.171450       32.002034
  H            7.884752        7.740542       31.706534
  H            8.797252        8.499252       30.379498
  H            6.472685        9.815966       31.897550
  H            6.368111        9.119783       30.268669
  H            8.083696       11.238591       31.078101
  C           18.072625        2.905731       22.233181
  C           19.398384        2.837580       22.962388
  O           20.120952        4.044875       22.769414
  H           18.228682        3.049221       21.158928
  H           17.496222        1.988998       22.385601
  H           17.482372        3.757916       22.585735
  H           20.004767        2.003146       22.597271
  H           19.238253        2.703783       24.036167
  H           20.266534        4.149819       21.813696
  C           22.291193       26.097390       23.649031
  C           21.694462       26.023476       22.258897
  O           20.318876       26.373914       22.302057
  H           21.778226       25.407919       24.327601
  H           23.355324       25.846092       23.630417
  H           22.171945       27.102568       24.066535
  H           21.787116       25.014786       21.845072
  H           22.203070       26.720346       21.586414
  H           19.874210       25.743536       22.894087
  C           32.196475        8.072996       32.111682
  C           31.208587        7.075091       32.679385
  O           30.997789        7.332704       34.060003
  H           33.158852        8.002131       32.629147
  H           32.357294        7.898303       31.044212
  H           31.834018        9.096592       32.252352
  H           31.575962        6.050730       32.565329
  H           30.245760        7.155425       32.166495
  H           31.856732        7.249504       34.508220
  C           23.687275       11.945596        3.081375
  C           22.186603       12.130298        3.170213
  O           21.595729       11.004424        3.802813
  H           23.933407       11.051308        2.499456
  H           24.159646       12.812466        2.610977
  H           24.117851       11.805183        4.078271
  H           21.745741       12.245754        2.175426
  H           21.944537       13.019086        3.760133
  H           21.808188       10.221709        3.266323
  C           29.679842       14.144203       23.705889
  C           29.750988       12.736300       23.152020
  O           30.637456       11.950798       23.935643
  H           30.667695       14.616315       23.691141
  H           28.987779       14.758094       23.122743
  H           29.348698       14.131383       24.749484
  H           30.105816       12.739142       22.116945
  H           28.764329       12.264690       23.177213
  H           31.512967       12.372403       23.899119
  C            6.127431        3.964942       14.895058
  C            6.131801        2.450961       14.851867
  O            7.080191        1.995468       13.897935
  H            5.862551        4.379303       13.916740
  H            5.413275        4.331764       15.637550
  H            7.123441        4.346164       15.143142
  H            5.145555        2.063189       14.579393
  H            6.406069        2.040917       15.828179
  H            6.822549        2.356967       13.032751
  C           11.504180       33.679578       10.651293
  C           11.667884       34.987448       11.397418
  O           11.853459       36.051930       10.475818
  H           12.391692       33.465032       10.046931
  H           11.343621       32.851258       11.346980
  H           10.655009       33.732877        9.962105
  H           12.530418       34.950542       12.069701
  H           10.775670       35.203023       11.992419
  H           12.653415       35.855977        9.958830
  C           11.787281       28.634622       25.660251
  C           13.236428       29.055557       25.530592
  O           13.540634       30.051667       26.496060
  H           11.120473       29.488324       25.500499
  H           11.541166       27.855192       24.933761
  H           11.584578       28.256510       26.667651
  H           13.440487       29.458480       24.533946
  H           13.899565       28.202310       25.700198
  H           12.953260       30.808887       26.331091
  C           35.622472       14.034578       19.825481
  C           35.882993       14.908662       18.616295
  O           34.663404       15.466338       18.148851
  H           34.940938       13.215991       19.571732
  H           36.554929       13.610257       20.208038
  H           35.143121       14.612427       20.622491
  H           36.338849       14.331860       17.805872
  H           36.556497       15.730545       18.875996
  H           34.075677       14.728804       17.911732
  C            3.943804       27.364693       30.923776
  C            4.647017       26.798748       29.707544
  O            4.967803       25.432396       29.924531
  H            4.584618       27.294668       31.808884
  H            3.674941       28.412896       30.766123
  H            3.034770       26.795047       31.143035
  H            5.570232       27.347168       29.497307
  H            4.000307       26.861728       28.827574
  H            5.550054       25.387883       30.702095
  C           18.894509       20.206270       18.604734
  C           18.930851       21.347143       19.600280
  O           18.248220       20.975803       20.788988
  H           17.861575       19.950528       18.346655
  H           19.430796       20.470569       17.689084
  H           19.347682       19.306355       19.033337
  H           18.456596       22.242989       19.188173
  H           19.963801       21.593359       19.862838
  H           17.329547       20.768393       20.546864
  C           34.248186       34.708380        6.836604
  C           35.234104       33.639596        6.412706
  O           34.819055       33.055364        5.186609
  H           33.249879       34.280697        6.976000
  H           34.562588       35.180041        7.771783
  H           34.159325       35.478908        6.063750
  H           35.309161       32.852541        7.169145
  H           36.227873       34.072288        6.265240
  H           33.939897       32.665495        5.330438
  C           12.196199        5.399654       16.089485
  C           13.670416        5.074296       16.211346
  O           13.902312        3.724880       15.834241
  H           11.601400        4.750071       16.740037
  H           12.003069        6.441267       16.360807
  H           11.847571        5.229953       15.065487
  H           14.020343        5.217105       17.238209
  H           14.260352        5.718645       15.553064
  H           13.381722        3.160218       16.430686
  C           28.396247       29.655647       10.663699
  C           29.628432       28.994948       10.081273
  O           30.775487       29.789927       10.344290
  H           28.241924       30.645247       10.221163
  H           27.505651       29.047065       10.483867
  H           28.512008       29.803843       11.742379
  H           29.530619       28.866707        8.999017
  H           29.784650       28.010844       10.532584
  H           30.631214       30.658407        9.931336
  C           29.195978       33.597897       29.908750
  C           27.685884       33.512383       29.829209
  O           27.248216       32.235628       30.271079
  H           29.660736       32.833635       29.277193
  H           29.548261       34.581941       29.587149
  H           29.538746       33.416280       30.932683
  H           27.337404       33.667583       28.803653
  H           27.225273       34.271014       30.468632
  H           27.654921       31.569416       29.691117
  C           19.297388       23.019340       29.529430
  C           20.501944       23.694669       30.151523
  O           21.687175       22.999366       29.792791
  H           19.211581       21.984440       29.876677
  H           18.377094       23.552919       29.782857
  H           19.396584       22.982253       28.439615
  H           20.421913       23.712673       31.242652
  H           20.589761       24.725062       29.794980
  H           21.603619       22.088244       30.122153
  C            2.944104       18.210523       32.587764
  C            3.017301       19.722840       32.627304
  O            4.242177       20.164362       32.060168
  H            3.769220       17.768100       33.155573
  H            1.998488       17.854855       33.006312
  H            3.034889       17.847182       31.558855
  H            2.952896       20.092212       33.655267
  H            2.197120       20.161004       32.051231
  H            4.964169       19.777777       32.584461
  C           31.884871       34.068858       33.734496
  C           31.346175       35.319254       34.398077
  O           32.409330       36.049779       34.992164
  H           32.381627       33.424932       34.467677
  H           31.079874       33.502926       33.257449
  H           32.633398       34.326177       32.977921
  H           30.615931       35.068636       35.173464
  H           30.859139       35.964301       33.661018
  H           32.829345       35.471896       35.651893
  C            7.475636       35.832977        8.946021
  C            8.938470       35.619526        9.275534
  O            9.070104       35.121576       10.599024
  H            7.024975       36.554770        9.635137
  H            7.356032       36.201063        7.923241
  H            6.916070       34.897977        9.053602
  H            9.499612       36.555431        9.194968
  H            9.382684       34.890911        8.591180
  H            8.681445       35.779940       11.199944
  C           25.068918       12.632226       10.917542
  C           24.841688       13.075873       12.347775
  O           24.493160       14.452260       12.379328
  H           25.880237       13.206596       10.458387
  H           25.322298       11.569293       10.874607
  H           24.173047       12.807432       10.312868
  H           25.741476       12.927459       12.952461
  H           24.024371       12.506576       12.799924
  H           25.229229       14.950171       11.984497
  C           31.542272       12.849847       19.083032
  C           30.045019       12.747392       19.287377
  O           29.520810       14.008903       19.675581
  H           32.038595       13.162615       20.007587
  H           31.959327       11.889488       18.767361
  H           31.776910       13.604202       18.324873
  H           29.803909       12.013366       20.062208
  H           29.551852       12.444031       18.359312
  H           29.957888       14.265125       20.505591
  C            9.869351        3.475740       27.064042
  C            9.186942        4.785735       27.399087
  O            9.200430        4.994535       28.803767
  H            9.354821        2.637237       27.544805
  H            9.881995        3.307879       25.983516
  H           10.899512        3.472039       27.435077
  H            8.148653        4.787033       27.053767
  H            9.709277        5.621725       26.924922
  H            8.725943        4.252043       29.215072
  C           24.823284       28.355439       30.365254
  C           25.559054       27.055614       30.616488
  O           26.883328       27.142054       30.110786
  H           24.772220       28.570255       29.292776
  H           23.805979       28.310988       30.763985
  H           25.350675       29.193299       30.832974
  H           25.051500       26.216951       30.130357
  H           25.616334       26.849289       31.689192
  H           26.821756       27.315834       29.156002
  C           35.253701        8.598509       21.932664
  C           35.669325        7.171763       22.225367
  O           34.610853        6.481196       22.873179
  H           35.009128        9.128243       22.859232
  H           36.052783        9.139703       21.418416
  H           34.354422        8.617438       21.308283
  H           36.552885        7.144743       22.870256
  H           35.903616        6.643120       21.296825
  H           34.416673        6.952698       23.701180
  C           21.250886       22.858582       35.624086
  C           22.704986       23.190968       35.361148
  O           23.242467       23.917437       36.456713
  H           20.662779       23.772631       35.756773
  H           20.826329       22.284166       34.796033
  H           21.149177       22.277859       36.546761
  H           22.812134       23.793252       34.453919
  H           23.290875       22.275397       35.238636
  H           22.721651       24.733159       36.551323
  C            9.373073       30.227213        7.594840
  C            9.195791       30.287456        6.091855
  O            9.037218       31.635975        5.675615
  H            8.500069       30.647746        8.104719
  H            9.513149       29.195713        7.929890
  H           10.239322       30.820938        7.904705
  H            8.316665       29.717045        5.777115
  H           10.073732       29.875307        5.585992
  H            8.249638       31.990098        6.122737
  C           32.158193       14.025233       15.715799
  C           31.392145       12.721771       15.625353
  O           30.096801       12.956182       15.092399
  H           31.638029       14.735512       16.366870
  H           33.164896       13.859344       16.109378
  H           32.236378       14.495361       14.730011
  H           31.287787       12.258574       16.611176
  H           31.909835       12.018387       14.966723
  H           29.641660       13.574328       15.689347
  C           24.024399       21.625440       28.861958
  C           25.513096       21.382929       28.724141
  O           25.986842       21.949788       27.511235
  H           23.479196       21.169281       28.029112
  H           23.646689       21.208926       29.799894
  H           23.804802       22.697849       28.836865
  H           25.737886       20.312062       28.722707
  H           26.055063       21.848114       29.552645
  H           25.506499       21.523416       26.781110
  C           20.770147       26.581809       17.816221
  C           22.107113       26.209395       18.422730
  O           22.598736       25.020696       17.820894
  H           20.037488       25.783627       17.974582
  H           20.385342       27.505275       18.257819
  H           20.862841       26.718672       16.733821
  H           22.017159       26.045927       19.500912
  H           22.838816       27.004863       18.254244
  H           21.946650       24.318060       17.984264
  C            7.883786       24.013062       27.578917
  C            7.628880       25.500120       27.711975
  O            6.319746       25.724984       28.214478
  H            7.164480       23.557117       26.890677
  H            8.894808       23.822403       27.208302
  H            7.760690       23.513095       28.545247
  H            7.725061       26.002946       26.744914
  H            8.343200       25.950256       28.407439
  H            5.692349       25.330074       27.585174
  C           33.188052       30.102071       35.472832
  C           32.869396       28.735679       34.902346
  O           31.960195       28.862261       33.818724
  H           32.278692       30.590853       35.837685
  H           33.900659       30.023319       36.298582
  H           33.611318       30.752819       34.700636
  H           32.422199       28.087619       35.662165
  H           33.778636       28.254606       34.530328
  H           31.152478       29.281651       34.161227
  C            4.032177       26.696942        9.954364
  C            2.690610       25.993947        9.949876
  O            2.854860       24.637511        9.562565
  H            4.485204       26.672680        8.957800
  H            3.925058       27.739416       10.266849
  H            4.728622       26.193599       10.632982
  H            1.997033       26.476257        9.254450
  H            2.245639       26.011932       10.948987
  H            3.241586       24.632172        8.670366
  C           30.443695        8.533302       22.769576
  C           30.005491        9.220425       21.492916
  O           31.137137        9.512974       20.686257
  H           31.121453        9.175378       23.341716
  H           29.581423        8.286135       23.395090
  H           30.992287        7.613154       22.543107
  H           29.478553       10.154332       21.710732
  H           29.336285        8.572322       20.919617
  H           31.720651       10.096689       21.200448
  C           22.662749        6.023810       32.709967
  C           21.212126        6.065785       32.276429
  O           20.561765        4.856830       32.640248
  H           23.186038        5.189985       32.230525
  H           23.174042        6.955292       32.451525
  H           22.737371        5.867050       33.791064
  H           21.129800        6.196676       31.193202
  H           20.690466        6.894060       32.764666
  H           21.026321        4.128300       32.194116
  C            5.370648       27.221355       16.421365
  C            4.634251       26.789024       17.672297
  O            5.398618       25.819994       18.374886
  H            5.542192       26.366935       15.758415
  H            4.802126       27.980486       15.876962
  H            6.354317       27.629890       16.675150
  H            3.660376       26.355995       17.424617
  H            4.473184       27.643296       18.336242
  H            5.528065       25.061435       17.780382
  C           18.988163       35.029854       10.335190
  C           17.672210       34.280350       10.358326
  O           17.822927       33.015741        9.729872
  H           19.323490       35.191480        9.305435
  H           18.893024       36.000109       10.830596
  H           19.770142       34.450936       10.837461
  H           16.891639       34.841472        9.835697
  H           17.345328       34.112464       11.388621
  H           18.104019       33.175767        8.812821
  C            9.148449       21.146059       24.818144
  C            9.505919       21.102164       23.346984
  O           10.915904       21.032464       23.192095
  H            9.594464       22.022963       25.298842
  H            8.064121       21.183258       24.954976
  H            9.540769       20.264922       25.336406
  H            9.139060       21.992376       22.827152
  H            9.066592       20.219933       22.872426
  H           11.296052       21.824891       23.608208
  C            5.127282        3.021548        6.148074
  C            5.226027        2.964127        7.658364
  O            4.424662        3.984348        8.236178
  H            5.475049        3.990097        5.773998
  H            5.726414        2.230925        5.687825
  H            4.086812        2.910678        5.825519
  H            6.260036        3.099825        7.989577
  H            4.868903        1.998889        8.028935
  H            4.755723        4.837985        7.908602
  C           16.741976       26.598890        9.468247
  C           16.232699       25.888669       10.705279
  O           15.110520       25.083334       10.375043
  H           15.964753       27.243206        9.044287
  H           17.617259       27.211091        9.702688
  H           17.013463       25.875125        8.692765
  H           15.935280       26.606579       11.475628
  H           17.008589       25.238862       11.120358
  H           14.423560       25.670710       10.016324
  C            6.893488       20.340564        5.013809
  C            7.153202       19.428943        3.832488
  O            5.971855       18.712715        3.503334
  H            6.583511       19.760708        5.889390
  H            7.789976       20.912127        5.269735
  H            6.080209       21.038760        4.790175
  H            7.947807       18.711211        4.057770
  H            7.453333       20.012498        2.957313
  H            5.718817       18.190278        4.283484
  C           28.982410       22.938385       32.377336
  C           29.091085       21.437201       32.546628
  O           28.447213       20.779067       31.465335
  H           27.933091       23.250529       32.355969
  H           29.488221       23.460521       33.194283
  H           29.427278       23.252165       31.427311
  H           28.625718       21.112990       33.482368
  H           30.140336       21.128188       32.557945
  H           27.514015       21.052432       31.469618
  C           26.535650       11.536816       28.046041
  C           26.105694       10.124618       28.384949
  O           25.553663        9.496748       27.236930
  H           25.681411       12.129665       27.702871
  H           26.978571       12.029005       28.916353
  H           27.267395       11.531761       27.231525
  H           25.355103       10.123212       29.181129
  H           26.963239        9.532917       28.718192
  H           24.787137       10.024210       26.954398
  C           30.454595       22.583315       17.444241
  C           30.874929       21.298117       16.761884
  O           31.857933       20.633471       17.542175
  H           31.311336       23.253820       17.568257
  H           29.685057       23.099471       16.863495
  H           30.063736       22.377571       18.446144
  H           31.290456       21.498239       15.769624
  H           30.018521       20.627127       16.648377
  H           32.618143       21.233567       17.629170
  C           12.308242        5.198784       25.052167
  C           13.818182        5.197682       24.933415
  O           14.250386        4.029732       24.250774
  H           11.963270        4.322368       25.610604
  H           11.957852        6.100811       25.561526
  H           11.843864        5.148280       24.061857
  H           14.289587        5.222230       25.920565
  H           14.158273        6.069433       24.366905
  H           13.951931        3.261336       24.766617
  C           10.575817       30.259068       19.554007
  C            9.810410       30.047458       20.843734
  O           10.651253       30.315089       21.956507
  H           11.441750       29.590791       19.503716
  H            9.936813       30.072816       18.686334
  H           10.960082       31.282820       19.497583
  H            9.444927       29.018847       20.919046
  H            8.951794       30.723278       20.894636
  H           11.405698       29.703510       21.907645
  C           19.507821       35.450135        5.266557
  C           19.126337       34.042187        5.674204
  O           17.887135       34.056763        6.367797
  H           19.609865       36.093657        6.146573
  H           20.452819       35.454196        4.716253
  H           18.729361       35.893164        4.636765
  H           19.887918       33.601983        6.324978
  H           19.016036       33.404839        4.792067
  H           17.998101       34.617458        7.154507
  C           32.388218       26.190820       28.860931
  C           31.990057       24.926370       29.593501
  O           30.621404       24.992364       29.966782
  H           32.244045       27.069249       29.498534
  H           33.436318       26.148705       28.551761
  H           31.762849       26.335276       27.973825
  H           32.593885       24.788652       30.495562
  H           32.126430       24.052195       28.950255
  H           30.512377       25.766170       30.545523
  C           26.600755       31.266612       13.895858
  C           26.607704       30.114816       14.879393
  O           25.762906       30.412676       15.981437
  H           26.961469       32.184313       14.371958
  H           27.234347       31.045784       13.032337
  H           25.583006       31.468337       13.545990
  H           27.618239       29.923805       15.253057
  H           26.237834       29.202291       14.402905
  H           26.105203       31.218999       16.403670
  C           35.706481       23.575816       11.565092
  C           35.600232       22.090446       11.841520
  O           34.493527       21.544069       11.138967
  H           34.798707       24.095639       11.888654
  H           36.564696       24.009007       12.086326
  H           35.813851       23.761151       10.491298
  H           35.467009       21.898653       12.910518
  H           36.504760       21.573378       11.508332
  H           33.694126       22.002967       11.448765
  C           29.560555       35.839024       20.224650
  C           30.563293       34.894654       19.594804
  O           31.530462       35.632278       18.861727
  H           29.043023       36.422742       19.456278
  H           28.817613       35.287046       20.807085
  H           30.065397       36.554626       20.881887
  H           30.068966       34.192551       18.916583
  H           31.084904       34.320259       20.365866
  H           31.058538       36.131413       18.173428
  C           16.437318       14.109987       10.064886
  C           16.760014       15.558729       10.366610
  O           15.641376       16.188755       10.973752
  H           15.584715       14.037535        9.381672
  H           17.295251       13.605668        9.611579
  H           16.157513       13.578823       10.980575
  H           17.015917       16.102544        9.452241
  H           17.605981       15.626800       11.056720
  H           14.898113       16.131594       10.349336
  C           28.642976       18.872025       35.509388
  C           29.983265       19.543382       35.292759
  O           30.005683       20.804167       35.946077
  H           27.832182       19.487088       35.105318
  H           28.615321       17.891571       35.025841
  H           28.443894       18.745305       36.578603
  H           30.177850       19.696584       34.226946
  H           30.789625       18.930616       35.706095
  H           29.292287       21.344315       35.565407
  C           31.790955       21.942555        8.673509
  C           31.520861       23.085786        9.629593
  O           30.759481       22.623673       10.735784
  H           30.852282       21.522221        8.297779
  H           32.391099       22.278728        7.823398
  H           32.321583       21.131479        9.182922
  H           30.968127       23.889666        9.134060
  H           32.460476       23.496771       10.010066
  H           29.923096       22.269476       10.388497
  C            6.204956       35.161567       15.475383
  C            6.234072       33.648332       15.417987
  O            7.285653       33.151959       16.233276
  H            7.150524       35.580796       15.116065
  H            5.389315       35.559277       14.865112
  H            6.075757       35.505575       16.506828
  H            6.388552       33.297281       14.393200
  H            5.291608       33.233046       15.786557
  H            8.119158       33.518664       15.892102
  C           16.620397        6.396252       23.111756
  C           18.075174        6.205152       23.487428
  O           18.704735        7.467968       23.648225
  H           16.533050        6.950185       22.171283
  H           16.116594        5.432081       23.000270
  H           16.098924        6.982042       23.875842
  H           18.609140        5.642202       22.715899
  H           18.158181        5.659863       24.432052
  H           18.634221        7.940633       22.801338
  C           14.967055       25.642348       16.513185
  C           14.619993       24.169330       16.574758
  O           13.222705       24.007796       16.770711
  H           14.686456       26.145371       17.444417
  H           16.038443       25.783834       16.345910
  H           14.414567       26.134936       15.706323
  H           15.149146       23.675334       17.395280
  H           14.892985       23.672275       15.639367
  H           12.991797       24.444168       17.608484
  C            8.110902       31.937275       30.556138
  C            6.990893       31.328516       31.374072
  O            5.796221       32.074503       31.191950
  H            8.296895       32.971530       30.863849
  H            9.034836       31.363994       30.672619
  H            7.842284       31.964272       29.494993
  H            7.241673       31.321508       32.439131
  H            6.801650       30.298733       31.057404
  H            5.971612       32.984995       31.484944
  C            3.153110       18.489622       28.871235
  C            3.434605       17.055976       29.270540
  O            4.549399       17.006896       30.149022
  H            4.017606       18.925915       28.360101
  H            2.286189       18.546341       28.207080
  H            2.962213       19.105622       29.756116
  H            3.651564       16.439449       28.392978
  H            2.572457       16.626698       29.789160
  H            5.312058       17.381382       29.676037
  C           15.558404       34.010801       32.853348
  C           16.549492       34.944455       32.189980
  O           16.689412       36.129855       32.959496
  H           14.576132       34.486892       32.939611
  H           15.451637       33.085046       32.281115
  H           15.882684       33.763593       33.869539
  H           16.219116       35.216415       31.182915
  H           17.531716       34.469016       32.114223
  H           15.813940       36.549739       33.012887
  C           21.868031        7.667103       35.788594
  C           22.896676        8.502470       35.055058
  O           23.847956        7.657236       34.424543
  H           22.346647        7.049755       36.555907
  H           21.117898        8.303410       36.266388
  H           21.364079        6.982839       35.098140
  H           23.422569        9.171017       35.743369
  H           22.416090        9.110550       34.283163
  H           24.276053        7.128297       35.119209
  C            9.747417        6.666364        4.504219
  C           10.047074        5.872854        5.759038
  O            8.854183        5.673284        6.503409
  H            9.327519        7.645633        4.756564
  H           10.653953        6.814594        3.910845
  H            9.002778        6.149381        3.890090
  H           10.771746        6.395770        6.390464
  H           10.457386        4.891783        5.502736
  H            8.502700        6.550020        6.734488
  C           28.650797       20.097367        7.930666
  C           27.592153       19.145937        7.412905
  O           26.629063       19.859562        6.651261
  H           28.202108       20.865058        8.569642
  H           29.409901       19.560260        8.506122
  H           29.138836       20.619176        7.100939
  H           27.082256       18.639411        8.237967
  H           28.042749       18.386358        6.767500
  H           26.227790       20.525161        7.235694
  C            3.978366       20.570176       19.386586
  C            3.235943       21.888459       19.457014
  O            2.614548       22.028199       20.726364
  H            3.290636       19.730451       19.530983
  H            4.476786       20.454538       18.420109
  H            4.728588       20.507564       20.181671
  H            2.466797       21.947748       18.681006
  H            3.927609       22.725045       19.321861
  H            1.995268       21.286074       20.832880
  C           23.802479       30.837570       11.151319
  C           22.292463       30.912844       11.241923
  O           21.773232       31.611396       10.119725
  H           24.239723       31.841307       11.134239
  H           24.217118       30.287604       12.000722
  H           24.108566       30.341197       10.224585
  H           21.979243       31.430559       12.153600
  H           21.858846       29.908618       11.249135
  H           22.156695       32.504984       10.127560
  C           35.660371        3.591772       24.494609
  C           34.386066        2.814623       24.751921
  O           33.390481        3.677148       25.282740
  H           36.040193        4.030723       25.423058
  H           36.432696        2.944586       24.069712
  H           35.473389        4.420517       23.803861
  H           34.559617        1.999960       25.461495
  H           34.004603        2.385708       23.820759
  H           33.734776        4.045515       26.114226
  C           33.611533        5.607469       35.555034
  C           32.687788        4.407237       35.542321
  O           31.429210        4.769362       34.993002
  H           33.187874        6.415559       36.160398
  H           34.591593        5.340914       35.960378
  H           33.742781        6.003356       34.542630
  H           32.531441        4.021496       36.554275
  H           33.109815        3.605826       34.928987
  H           31.058236        5.474780       35.550109
  C           35.598199       10.502265       32.591194
  C           34.516529       10.362364       33.642118
  O           34.876141        9.356202       34.577650
  H           35.737575        9.559865       32.051363
  H           35.343836       11.285552       31.871727
  H           36.558395       10.747394       33.056864
  H           33.559097       10.092224       33.186443
  H           34.386841       11.302788       34.185560
  H           34.979564        8.523094       34.086897
  C           19.141606       15.957403       34.000614
  C           17.771688       15.509219       34.465885
  O           17.476702       16.083973       35.730618
  H           19.913211       15.645729       34.712265
  H           19.377228       15.536162       33.019334
  H           19.188932       17.049524       33.937809
  H           17.724618       14.419715       34.555639
  H           17.002679       15.830579       33.757437
  H           18.159633       15.784968       36.354962
  C            7.756987       15.132306       10.991456
  C            7.948992       16.528960       11.545095
  O            6.850313       17.351194       11.179387
  H            7.688708       15.155060        9.898852
  H            8.587560       14.481474       11.278579
  H            6.822263       14.696982       11.359825
  H            8.868731       16.980459       11.161012
  H            8.007190       16.503237       12.637110
  H            6.812905       17.375484       10.207989
  C           13.050074       32.559190       23.691301
  C           13.914624       33.802471       23.662509
  O           13.230321       34.883728       24.278561
  H           12.111439       32.727913       23.153288
  H           13.569844       31.712191       23.234898
  H           12.784340       32.298478       24.721023
  H           14.163191       34.084026       22.634778
  H           14.846978       33.633158       24.208948
  H           12.408583       35.032551       23.780363
  C           13.075405       28.530687       10.189997
  C           11.588103       28.761752       10.359009
  O           11.275131       28.921474       11.735033
  H           13.390185       27.628548       10.724805
  H           13.335525       28.422091        9.133391
  H           13.645280       29.365494       10.611011
  H           11.012540       27.919436        9.963379
  H           11.279213       29.668815        9.831401
  H           11.544316       28.107162       12.193332
  C           23.554731       26.541706        8.728703
  C           24.363440       25.264432        8.636058
  O           23.504570       24.164265        8.373603
  H           22.818130       26.475732        9.536186
  H           24.204134       27.401767        8.914294
  H           22.996898       26.712573        7.802129
  H           24.903897       25.073541        9.568129
  H           25.091530       25.330483        7.822382
  H           22.867856       24.108092        9.106435
  C           13.097878        8.335927       21.291687
  C           13.589686        6.905420       21.215542
  O           12.618406        6.091876       20.573929
  H           12.164589        8.394552       21.861333
  H           13.842334        8.979294       21.768904
  H           12.884462        8.723778       20.290219
  H           13.780837        6.502340       22.214680
  H           14.516858        6.849602       20.637804
  H           11.801816        6.140405       21.099694
  C           18.083628       35.890861       13.720524
  C           19.141382       34.815837       13.860170
  O           18.816770       33.953119       14.940564
  H           18.016957       36.489379       14.635014
  H           18.310550       36.554483       12.881486
  H           17.097479       35.442614       13.560842
  H           20.126001       35.255671       14.045542
  H           19.198404       34.214143       12.948436
  H           18.777962       34.495088       15.747017
  C           20.508994       20.605735       32.093210
  C           21.357714       19.477355       32.641350
  O           21.507937       19.621448       34.046190
  H           20.976681       21.575035       32.294922
  H           20.369893       20.500066       31.013693
  H           19.526899       20.619277       32.577173
  H           22.350177       19.473126       32.180600
  H           20.882701       18.511492       32.446368
  H           21.939291       20.477698       34.208586
  C           25.616000       12.506127       30.984952
  C           24.724133       13.053583       32.079890
  O           24.486620       14.437298       31.865816
  H           26.579443       13.026342       30.974204
  H           25.795196       11.436649       31.126295
  H           25.159188       12.661799       30.002098
  H           25.185844       12.924530       33.063485
  H           23.759346       12.538094       32.081330
  H           25.348413       14.887648       31.875859
  C           24.774850        6.814931       16.604364
  C           26.263280        6.820483       16.884664
  O           26.772267        8.141999       16.777727
  H           24.569759        7.185497       15.594621
  H           24.364028        5.805903       16.699017
  H           24.249412        7.477877       17.299584
  H           26.798330        6.179719       16.177252
  H           26.463472        6.458743       17.897389
  H           26.598290        8.450762       15.872188
  C           33.870779       21.989232       30.303494
  C           35.020102       22.975275       30.331760
  O           36.165694       22.402940       29.717792
  H           34.133147       21.073409       30.843302
  H           32.975057       22.421332       30.758295
  H           33.639324       21.696740       29.274034
  H           35.274033       23.252796       31.359278
  H           34.757791       23.884776       29.783539
  H           36.396468       21.601331       30.217561
  C           25.516255       15.980305        5.155885
  C           25.972785       15.768855        6.584483
  O           25.286682       16.661345        7.450296
  H           25.721906       17.005730        4.831583
  H           26.023753       15.288433        4.477924
  H           24.434973       15.830316        5.070764
  H           27.048743       15.942074        6.682453
  H           25.757074       14.746417        6.907957
  H           25.492266       17.566643        7.160858
  C           35.132011       29.007743        6.717424
  C           35.842988       29.823572        7.777122
  O           36.557414       28.963905        8.653178
  H           34.422185       28.311675        7.176334
  H           34.589953       29.656850        6.024095
  H           35.848553       28.404167        6.150700
  H           35.130314       30.410255        8.364649
  H           36.557920       30.510840        7.315515
  H           35.912685       28.363901        9.065397
  C            4.768284       23.244975       16.319860
  C            4.483049       22.066883       15.411696
  O            5.541179       21.123241       15.494199
  H            5.699869       23.741380       16.028840
  H            3.954018       23.973865       16.280338
  H            4.895176       22.911553       17.355061
  H            4.380284       22.389259       14.371117
  H            3.556882       21.567930       15.711373
  H            6.357465       21.573140       15.216943
  C           11.544734       27.877029        6.876804
  C           12.519111       28.585903        5.959138
  O           12.497126       27.986470        4.671853
  H           11.810519       26.819956        6.981289
  H           11.537567       28.337689        7.868577
  H           10.531495       27.911125        6.463166
  H           13.538481       28.533878        6.353434
  H           12.244858       29.639161        5.849699
  H           12.751357       27.053930        4.778345
  C           10.271082        5.939817        9.142008
  C            9.053857        5.067424        9.368535
  O            9.359296        4.041001       10.301310
  H           11.103375        5.347980        8.747067
  H           10.047379        6.746031        8.437843
  H           10.611858        6.378262       10.085698
  H            8.722682        4.605245        8.433653
  H            8.227749        5.660175        9.771944
  H           10.087432        3.514377        9.929708
  C           16.697921       19.181858       27.017187
  C           17.678258       19.366138       28.156926
  O           18.978656       18.968268       27.747573
  H           16.658429       18.132651       26.706437
  H           15.693772       19.499690       27.311364
  H           17.010747       19.761384       26.142429
  H           17.385919       18.769699       29.026460
  H           17.722004       20.416800       28.458159
  H           18.931474       18.031430       27.491228
  C            7.528923       24.725633       21.516075
  C            6.157781       25.225112       21.110474
  O            6.265703       26.510737       20.516818
  H            7.989720       25.405184       22.240532
  H            7.464937       23.728455       21.960389
  H            8.196149       24.684777       20.648865
  H            5.492651       25.292943       21.976667
  H            5.704732       24.548885       20.379715
  H            6.660126       27.106178       21.176730
  C            4.269656       18.019510       26.014863
  C            4.042790       19.463655       25.618630
  O            5.166399       19.952013       24.900358
  H            5.155712       17.927456       26.651566
  H            3.405473       17.623058       26.555128
  H            4.448199       17.400564       25.129458
  H            3.888933       20.093093       26.500348
  H            3.162554       19.550293       24.975028
  H            5.941129       19.879863       25.483617
  C           23.295817       21.924573       17.764460
  C           21.902174       21.907116       18.357315
  O           21.543840       20.580412       18.715587
  H           23.342874       21.297897       16.867786
  H           23.593556       22.942584       17.498230
  H           24.022162       21.517716       18.475658
  H           21.166745       22.288710       17.642598
  H           21.861523       22.526481       19.258025
  H           21.573538       20.040359       17.907462
  C           31.838610       12.186330       26.518089
  C           31.144587       12.070069       27.859297
  O           29.735904       12.081516       27.679329
  H           31.559938       13.119549       26.017685
  H           32.925308       12.162345       26.638022
  H           31.537234       11.367869       25.856117
  H           31.421304       12.899108       28.517638
  H           31.417951       11.132376       28.351789
  H           29.502029       12.922168       27.250134
  C           25.497178       11.278672       35.668316
  C           24.088963       11.830047       35.585030
  O           23.327925       11.078208       34.650972
  H           25.992335       11.332785       34.693199
  H           26.092094       11.837027       36.396456
  H           25.481074       10.223143       35.959023
  H           24.095686       12.877934       35.270102
  H           23.594381       11.765544       36.558567
  H           23.769852       11.149614       33.787719
  C            9.554496       27.129586       34.319747
  C           10.074339       25.949940       35.114870
  O           10.305375       24.846538       34.251138
  H            8.613255       26.875710       33.821176
  H            9.386984       27.993747       34.968622
  H           10.265289       27.408503       33.534959
  H            9.357540       25.649112       35.884929
  H           11.019321       26.204272       35.603613
  H            9.458467       24.622173       33.829224
  C           16.212321       32.008671       17.376153
  C           15.570086       32.240276       16.024148
  O           16.464504       31.856468       14.989926
  H           17.130282       32.597418       17.474561
  H           15.529336       32.284116       18.184567
  H           16.494372       30.957218       17.493652
  H           15.308566       33.294163       15.889166
  H           14.658733       31.643338       15.925937
  H           17.266624       32.398805       15.079808
  C            8.058269       15.505187       35.597465
  C            9.556753       15.410722       35.398356
  O           10.229185       16.107347       36.437324
  H            7.731056       16.550030       35.583473
  H            7.525629       14.959190       34.813848
  H            7.772452       15.095119       36.571665
  H            9.853010       15.841999       34.437356
  H            9.881059       14.366313       35.422455
  H            9.941898       17.035672       36.401525
  C           28.692967        3.719478       35.802394
  C           27.858708        2.641234       35.142525
  O           26.846927        3.233131       34.340738
  H           28.070121        4.353957       36.441504
  H           29.487926        3.279621       36.411031
  H           29.144451        4.372711       35.048498
  H           27.383458        1.999659       35.890728
  H           28.482503        2.015501       34.497635
  H           26.292564        3.779044       34.924059
  C            2.819138       17.377107       16.534764
  C            3.636635       18.548232       17.038933
  O            4.685526       18.836662       16.125948
  H            3.444734       16.484438       16.431159
  H            1.996315       17.152576       17.219177
  H            2.406545       17.593436       15.543865
  H            4.073469       18.329471       18.018020
  H            3.010499       19.440325       17.132042
  H            5.241408       18.041736       16.057447
  C            6.964841        4.393576       17.912471
  C            8.261965        3.668203       17.620363
  O            9.343975        4.588062       17.624834
  H            6.771549        5.160898       17.155625
  H            6.123039        3.695744       17.928965
  H            7.019078        4.905941       18.878625
  H            8.224568        3.174681       16.644490
  H            8.456385        2.909145       18.383630
  H            9.166715        5.252501       16.937301
  C           20.205892        4.146986       19.303957
  C           19.123159        5.188774       19.494718
  O           19.515672        6.412766       18.890828
  H           21.144249        4.475480       19.762803
  H           19.911575        3.192657       19.749498
  H           20.409044        3.992989       18.239097
  H           18.932478        5.366704       20.557390
  H           18.190169        4.861353       19.026882
  H           20.339771        6.700178       19.319615
  C            8.396593       16.929427       17.004114
  C            9.542050       16.964161       17.994439
  O            9.281129       17.927727       19.004571
  H            8.267602       17.906543       16.527075
  H            8.574702       16.179816       16.228077
  H            7.455027       16.696415       17.512121
  H           10.482526       17.221650       17.497956
  H            9.661674       15.989196       18.475768
  H            9.186056       18.791517       18.568187
  C            6.067675       12.203706       22.152821
  C            4.982098       13.218601       22.445283
  O            5.359865       14.491822       21.942187
  H            7.010405       12.498232       22.625553
  H            5.784511       11.213211       22.519714
  H            6.257185       12.141709       21.076180
  H            4.804899       13.304711       23.521608
  H            4.044606       12.925941       21.963614
  H            6.188161       14.747221       22.382982
  C           15.654669        8.165298       32.712768
  C           16.041503        6.763823       33.137329
  O           15.755868        5.844316       32.093381
  H           14.584964        8.219415       32.485250
  H           15.883875        8.888527       33.500344
  H           16.188929        8.453024       31.801346
  H           15.492304        6.459481       34.033458
  H           17.112310        6.711455       33.354526
  H           14.801206        5.891263       31.914442
  C            2.950124       11.923051       29.703560
  C            2.648280       10.869429       30.748929
  O            3.853740       10.432086       31.359259
  H            3.606786       11.519611       28.925747
  H            2.029647       12.282594       29.235239
  H            3.474037       12.772905       30.153198
  H            2.147241       10.005367       30.302110
  H            1.999960       11.278856       31.529054
  H            4.418701       10.061445       30.659940
  C            5.421359        4.669441       10.556547
  C            5.980067        5.802972       11.391398
  O            7.318016        5.513415       11.769492
  H            5.427212        3.732298       11.122842
  H            4.396037        4.884693       10.243091
  H            6.037246        4.507044        9.665916
  H            5.384253        5.954479       12.296574
  H            5.981442        6.735246       10.819202
  H            7.305047        4.689118       12.285214
  C           21.859958       17.137341       35.427575
  C           23.018635       18.084462       35.660927
  O           22.642974       19.091250       36.589455
  H           20.995161       17.675382       35.025579
  H           22.138646       16.345582       34.726631
  H           21.540491       16.679936       36.369718
  H           23.326974       18.564969       34.727476
  H           23.877255       17.545137       36.071348
  H           21.886035       19.570751       36.211664
  C           24.076541       31.681520       35.232837
  C           24.518776       30.751820       34.121932
  O           23.393629       30.331808       33.363948
  H           23.374565       31.176020       35.904149
  H           24.934264       32.027447       35.816376
  H           23.553725       32.551437       34.821960
  H           25.019760       29.867170       34.526533
  H           25.212367       31.263180       33.448146
  H           22.788180       29.870445       33.969076
  C           28.367356       32.870871       17.101482
  C           29.407621       31.960614       17.720597
  O           29.101763       30.604899       17.428373
  H           27.371551       32.646285       17.497583
  H           28.597874       33.920572       17.303622
  H           28.320167       32.720974       16.017869
  H           29.442699       32.086453       18.806978
  H           30.399405       32.181520       17.315491
  H           28.223499       30.415745       17.800497
  C            6.555565       22.271591       31.555510
  C            7.520103       21.122988       31.766226
  O            8.710466       21.595340       32.380087
  H            6.999534       23.036336       30.909740
  H            5.626055       21.921281       31.098165
  H            6.320417       22.756970       32.508414
  H            7.779804       20.648919       30.814856
  H            7.076798       20.365732       32.419364
  H            9.101691       22.260200       31.788049
  C           15.011290       21.182884       34.215179
  C           14.013186       20.089900       33.893934
  O           14.473458       18.847125       34.404390
  H           15.985092       20.962047       33.765844
  H           14.663297       22.150419       33.842822
  H           15.168643       21.255304       35.296339
  H           13.869921       19.994366       32.813361
  H           13.044524       20.309242       34.352331
  H           15.329435       18.656548       33.984165
  C           12.917243       24.635657       13.264635
  C           12.428965       26.009043       12.853031
  O           13.519955       26.916821       12.802178
  H           13.385496       24.671724       14.253776
  H           12.090704       23.920166       13.292542
  H           13.677373       24.271547       12.565679
  H           11.687337       26.390559       13.561356
  H           11.970479       25.970804       11.860623
  H           13.914408       26.951125       13.690341
  C           28.352047       24.920186       28.637792
  C           28.582991       24.280490       27.284471
  O           29.944190       23.896681       27.155106
  H           28.977015       25.811433       28.756347
  H           27.303789       25.206785       28.759806
  H           28.626340       24.229750       29.442139
  H           28.335141       24.973876       26.475103
  H           27.964152       23.385350       27.173536
  H           30.485057       24.699741       27.245444
  C           31.606479        5.456823        7.249627
  C           30.150571        5.043401        7.190999
  O           29.955993        3.846143        7.929659
  H           32.247476        4.677891        6.823775
  H           31.770092        6.387208        6.698731
  H           31.925086        5.599088        8.287492
  H           29.831768        4.874499        6.157980
  H           29.514354        5.819721        7.625857
  H           30.517821        3.160472        7.529899
  C           28.059501       20.780610       11.478035
  C           27.722907       20.028744       12.749028
  O           26.521270       20.537167       13.309814
  H           28.196436       21.847272       11.684047
  H           28.974494       20.389602       11.024410
  H           27.242239       20.698590       10.753972
  H           28.524357       20.127425       13.487425
  H           27.577516       18.965380       12.537686
  H           26.663638       21.479535       13.502887
  C           14.310425       21.377191        4.131328
  C           14.725762       20.959426        5.526674
  O           15.336604       22.051405        6.198507
  H           15.179645       21.700772        3.549339
  H           13.822916       20.551260        3.605928
  H           13.620883       22.226739        4.172736
  H           15.435067       20.126959        5.492390
  H           13.853740       20.645964        6.107936
  H           16.115296       22.316228        5.679749
  C           31.520651       18.653609        3.676016
  C           33.008738       18.482256        3.900200
  O           33.726949       18.947407        2.766748
  H           31.193178       18.084511        2.799745
  H           30.953508       18.314957        4.547529
  H           31.278638       19.703746        3.482226
  H           33.261772       17.431220        4.069276
  H           33.333760       19.059691        4.770531
  H           33.438383       18.422074        2.001008
  C           18.080182        9.390245       16.201644
  C           16.669907        8.838828       16.168651
  O           16.553050        7.750694       17.073755
  H           18.803678        8.620207       15.914318
  H           18.182435       10.240394       15.521451
  H           18.344050        9.713041       17.214110
  H           16.408008        8.490498       15.164975
  H           15.951046        9.608067       16.465392
  H           17.188487        7.068956       16.796165
  C            4.661724       23.958049        3.448953
  C            6.055487       23.826955        2.870800
  O            6.166701       22.612478        2.143075
  H            4.443901       23.125923        4.126509
  H            4.554556       24.897032        3.999134
  H            3.910041       23.925948        2.653431
  H            6.810932       23.832537        3.662356
  H            6.265829       24.654675        2.187293
  H            5.987672       21.883130        2.760817
  C           11.706509       17.091305       31.336623
  C           12.775967       17.514666       32.322041
  O           12.213597       18.360046       33.315005
  H           11.268485       17.964463       30.841960
  H           12.120454       16.425743       30.574029
  H           10.890282       16.574742       31.852229
  H           13.583184       18.054236       31.817506
  H           13.204421       16.640580       32.820987
  H           11.844344       19.137816       32.862976
  C           14.790808       19.746770       21.043052
  C           13.994073       18.464612       20.919325
  O           13.287272       18.214217       22.125409
  H           15.514739       19.675172       21.861440
  H           15.328478       19.962749       20.115616
  H           14.131111       20.589493       21.274418
  H           14.649875       17.613272       20.713329
  H           13.265613       18.543426       20.107118
  H           13.943367       18.136262       22.838898
  C           26.230972        9.960319        9.290065
  C           25.735849       10.923913        8.231592
  O           26.822848       11.367192        7.432317
  H           26.965978       10.444839        9.941192
  H           25.402572        9.596490        9.904276
  H           26.731570        9.103536        8.827206
  H           25.256769       11.795615        8.687562
  H           25.009087       10.433612        7.577400
  H           27.458113       11.809639        8.020775
  C            6.592754        8.229949       21.878063
  C            7.610510        9.075272       22.615373
  O            7.251292        9.182418       23.985186
  H            5.596659        8.680170       21.941754
  H            6.864169        8.123902       20.824042
  H            6.521231        7.233952       22.327272
  H            7.669119       10.080840       22.187952
  H            8.602298        8.617490       22.557604
  H            6.373490        9.598800       24.026348
  C           16.832793       21.907684       31.304515
  C           17.188408       20.435635       31.279371
  O           16.145351       19.694916       30.662708
  H           15.908940       22.073114       31.868510
  H           17.634125       22.494631       31.761936
  H           16.656950       22.278945       30.289549
  H           17.340659       20.051225       32.292455
  H           18.106436       20.273291       30.707170
  H           15.336751       19.837854       31.183608
  C           21.768506       17.177229       13.611643
  C           22.169010       16.209411       12.517592
  O           21.496952       16.536880       11.310112
  H           20.689354       17.132841       13.791702
  H           22.290605       16.948492       14.544898
  H           22.000379       18.206628       13.319263
  H           21.916912       15.180602       12.791981
  H           23.246008       16.263488       12.334031
  H           20.541519       16.476644       11.480765
  C           17.899253        8.998208       10.636034
  C           17.935805       10.074482       11.701079
  O           17.218419       11.218078       11.260114
  H           18.354732        9.357152        9.707239
  H           18.433889        8.103594       10.967248
  H           16.865588        8.725629       10.399073
  H           18.965179       10.370378       11.924964
  H           17.471479        9.715528       12.624171
  H           17.644197       11.535045       10.445345
  C           13.664790       20.665309       24.141528
  C           13.356859       19.673845       25.244343
  O           11.958039       19.636815       25.486904
  H           13.334088       21.670864       24.421631
  H           14.737526       20.693637       23.931035
  H           13.130705       20.398716       23.223600
  H           13.867142       19.948194       26.172585
  H           13.679959       18.669062       24.957002
  H           11.682482       20.531287       25.750706
  C           32.145090       30.651624       31.502835
  C           32.363333       29.244964       30.985436
  O           33.262284       28.548916       31.836500
  H           33.090436       31.203208       31.535040
  H           31.441519       31.196174       30.866969
  H           31.754334       30.629690       32.525450
  H           32.777954       29.259056       29.972924
  H           31.418511       28.694161       30.963715
  H           34.101264       29.040537       31.841564
  C            8.665438       18.558873       33.764146
  C            7.361821       18.062728       33.173852
  O            7.197938       16.679925       33.452964
  H            9.515037       18.015389       33.337804
  H            8.798911       19.627106       33.571959
  H            8.688469       18.388002       34.845435
  H            7.341950       18.206900       32.089366
  H            6.515000       18.601273       33.609064
  H            7.949659       16.209278       33.054204
  C           11.488815       16.963454       27.195334
  C           12.450099       16.468493       26.134688
  O           12.156935       17.083975       24.888838
  H           10.455624       16.723156       26.923789
  H           11.711938       16.510894       28.165529
  H           11.547802       18.052648       27.290674
  H           12.378467       15.383134       26.015716
  H           13.480136       16.718728       26.404780
  H           11.243548       16.847948       24.653001
  C           26.775453       29.170269        7.442737
  C           27.071505       27.684993        7.424492
  O           26.340533       27.031842        8.452101
  H           27.059812       29.609834        8.404446
  H           27.318591       29.685921        6.645884
  H           25.703127       29.350974        7.314766
  H           28.138262       27.495456        7.577445
  H           26.777372       27.247755        6.465923
  H           26.615774       27.420374        9.299974
  C           14.311568       24.121677       35.744782
  C           12.980232       24.831845       35.613521
  O           13.187065       26.183763       35.230845
  H           14.935383       24.605843       36.503333
  H           14.168753       23.073839       36.023190
  H           14.866019       24.165090       34.801590
  H           12.431240       24.814761       36.559886
  H           12.363772       24.351219       34.848327
  H           13.727294       26.604502       35.921305
  C           10.387762       24.396755       24.618762
  C           11.118706       25.318784       23.665029
  O           11.643918       24.573341       22.576281
  H           11.065592       23.633619       25.015161
  H            9.962675       24.958468       25.455213
  H            9.580912       23.867858       24.100907
  H           11.943027       25.831919       24.169487
  H           10.436277       26.073720       23.263896
  H           12.255979       23.912061       22.941921
  C            3.051686       10.593822        8.872101
  C            3.236784       10.283747        7.401177
  O            2.925776       11.428940        6.620976
  H            2.016493       10.884478        9.079114
  H            3.303381        9.726082        9.488178
  H            3.684588       11.435867        9.170946
  H            2.588309        9.459490        7.089136
  H            4.274068       10.003097        7.196674
  H            1.999901       11.664527        6.802246
  C            8.213026       16.490212       28.699462
  C            9.355391       17.178504       29.417291
  O            8.853757       17.952955       30.496872
  H            7.507152       17.226105       28.300507
  H            8.584550       15.875888       27.874569
  H            7.651791       15.852974       29.390733
  H            9.905580       17.837109       28.738453
  H           10.053237       16.440047       29.822553
  H            8.242531       18.611952       30.125753
  C           20.322544       31.166498       17.007626
  C           19.981501       30.007838       16.093723
  O           18.863943       30.341596       15.283429
  H           19.477728       31.404841       17.662180
  H           21.192342       30.931364       17.627333
  H           20.536935       32.067595       16.423697
  H           19.741033       29.110040       16.671151
  H           20.824245       29.778932       15.434991
  H           18.118258       30.533781       15.877250
  C           34.435806       35.828819       12.099635
  C           34.513903       35.605044       13.595579
  O           33.420963       34.805983       14.024405
  H           33.505425       36.340890       11.832921
  H           35.280445       36.429348       11.750605
  H           34.436936       34.872462       11.566445
  H           34.487476       36.555769       14.136610
  H           35.440004       35.084924       13.857030
  H           32.603503       35.280753       13.796470
  C            2.846653       32.133512        4.888716
  C            2.930351       31.075315        3.808329
  O            4.011142       30.193578        4.075417
  H            3.770909       32.719234        4.929245
  H            2.008212       32.811470        4.706338
  H            2.719934       31.670281        5.872724
  H            3.082686       31.529785        2.824692
  H            2.009187       30.486216        3.777278
  H            4.825610       30.724605        4.091428
  C           11.191841       10.428918       30.320165
  C           12.692216       10.559933       30.480584
  O           13.335710        9.388593       30.000185
  H           10.815768        9.569537       30.884961
  H           10.682024       11.330641       30.670671
  H           10.929946       10.259344       29.270609
  H           12.963600       10.704156       31.530747
  H           13.065410       11.413608       29.907426
  H           13.004904        8.637519       30.521777
  C           10.659312       12.413149       16.046722
  C            9.960930       13.755754       16.107539
  O            9.575596       14.042181       17.444096
  H            9.995312       11.615323       16.395347
  H           10.977456       12.185037       15.025634
  H           11.537100       12.405479       16.701200
  H            9.067835       13.762654       15.475382
  H           10.630388       14.551252       15.767608
  H            8.973745       13.335357       17.733541
  C           18.605047        8.813651       19.993392
  C           17.116361        8.625642       20.199523
  O           16.768117        7.262409       20.006583
  H           18.895300        8.521228       18.978896
  H           18.892398        9.856367       20.154774
  H           19.172513        8.179261       20.682191
  H           16.542441        9.237566       19.497059
  H           16.831856        8.909708       21.216828
  H           17.015829        7.022419       19.097382
  C           20.284669       29.773477       19.826337
  C           20.923209       28.528751       20.406811
  O           19.984469       27.463161       20.420607
  H           19.420162       30.079880       20.424421
  H           21.000324       30.599689       19.793405
  H           19.918427       29.581575       18.812457
  H           21.268928       28.705527       21.429806
  H           21.780457       28.220343       19.801373
  H           19.231423       27.742962       20.968546
  C           21.945492       35.765183       10.320985
  C           22.817522       35.029787       11.317369
  O           22.071406       33.998109       11.946541
  H           21.082230       36.216374       10.821150
  H           22.510565       36.553114        9.815288
  H           21.552000       35.073301        9.569071
  H           23.193911       35.710429       12.087010
  H           23.673503       34.572508       10.812653
  H           21.319032       34.415200       12.399940
  C           13.112773        4.761840       12.819697
  C           12.172765        4.747200       11.632181
  O           12.195683        3.470342       11.010880
  H           14.139037        4.547711       12.503639
  H           13.094265        5.734243       13.319658
  H           12.833780        3.987170       13.541474
  H           12.460742        5.502074       10.894262
  H           11.147297        4.952038       11.953119
  H           13.108410        3.301810       10.720827
  C           10.133195       23.481512       17.291053
  C           10.668658       23.056221       15.939598
  O           11.500264       24.075537       15.404497
  H            9.543559       24.399879       17.202213
  H            9.503425       22.699630       17.724555
  H           10.955732       23.696812       17.980975
  H            9.852365       22.863890       15.236772
  H           11.264900       22.143996       16.033864
  H           10.959258       24.878660       15.315564
  C           20.118573       20.604090       25.856937
  C           21.229364       19.619269       26.157428
  O           21.957722       19.332919       24.972353
  H           19.426603       20.192455       25.114849
  H           19.557886       20.847977       26.763591
  H           20.526692       21.527796       25.433712
  H           20.826881       18.683538       26.557059
  H           21.923682       20.037718       26.891845
  H           21.334522       18.952900       24.329850
  C           27.923048       14.482412       12.699274
  C           29.322975       13.931165       12.525045
  O           29.289401       12.511390       12.529016
  H           27.490613       14.147843       13.647970
  H           27.929574       15.575812       12.681786
  H           27.264261       14.119432       11.903561
  H           29.981099       14.269179       13.331214
  H           29.747918       14.259667       11.572125
  H           28.919538       12.229296       13.382964
  C           32.430204       21.703658       34.581147
  C           33.090116       21.496056       33.233764
  O           33.717857       22.697633       32.810610
  H           31.670897       22.490454       34.523125
  H           31.955787       20.781856       34.929114
  H           33.166217       22.025799       35.325071
  H           32.356050       21.198571       32.478820
  H           33.854446       20.716168       33.297937
  H           33.029427       23.381496       32.747366
  C           26.783917       29.795910        3.026657
  C           26.953652       31.193809        3.584414
  O           26.404634       31.264394        4.892276
  H           25.723947       29.526483        2.973421
  H           27.216830       29.720438        2.025276
  H           27.267110       29.060028        3.677743
  H           26.451327       31.932321        2.952306
  H           28.013981       31.455686        3.644975
  H           25.460832       31.039630        4.826535
  C            3.910703        6.330091       28.717876
  C            3.444504        5.486237       29.886034
  O            4.560042        5.072275       30.661351
  H            4.588444        5.759551       28.074361
  H            3.061185        6.670996       28.119566
  H            4.467880        7.203708       29.071797
  H            2.908667        4.597510       29.539143
  H            2.775375        6.062467       30.531612
  H            5.143458        4.553295       30.081792
  C            6.213767       14.869724       31.612887
  C            6.048299       13.991837       30.389794
  O            5.200739       14.629858       29.445613
  H            5.245295       15.058763       32.087531
  H            6.877788       14.399402       32.343465
  H            6.627441       15.844508       31.334351
  H            5.611367       13.024856       30.656870
  H            7.016442       13.813103       29.913036
  H            4.340625       14.775564       29.875236
  C           23.989193        9.785506       14.078534
  C           24.407240       10.999047       14.882635
  O           24.611799       10.634817       16.239985
  H           23.057053        9.364498       14.469467
  H           23.843552       10.046118       13.026516
  H           24.747250        8.998349       14.146707
  H           23.642575       11.780564       14.840106
  H           25.343554       11.411036       14.495173
  H           23.772180       10.279095       16.577780
  C           26.138171       14.198611       23.180681
  C           26.070431       15.462102       22.348200
  O           26.156616       15.138999       20.967953
  H           27.081038       13.670016       23.005895
  H           26.056401       14.429100       24.246543
  H           25.331907       13.511325       22.904114
  H           26.888561       16.143228       22.601223
  H           25.123320       15.982294       22.518276
  H           27.005205       14.686050       20.825344
  C            7.399805        5.487714       24.598597
  C            7.377885        6.841709       25.277007
  O            8.503901        7.606090       24.871157
  H            8.307841        4.936411       24.864111
  H            6.529421        4.892368       24.888197
  H            7.403978        5.602409       23.509680
  H            7.399389        6.735603       26.365845
  H            6.474142        7.393164       25.001884
  H            9.301339        7.112638       25.128452
  C           18.144858       25.652270       28.222382
  C           16.832922       26.395301       28.366443
  O           17.076292       27.737548       28.761474
  H           18.689876       25.641485       29.172014
  H           17.975448       24.620439       27.902228
  H           18.790427       26.148697       27.490459
  H           16.192459       25.919445       29.115213
  H           16.295884       26.412169       27.413630
  H           17.544941       27.712092       29.613134
  C           27.921885        3.639755       25.394699
  C           27.162993        4.749231       24.696724
  O           28.052291        5.519585       23.901357
  H           28.700249        4.052723       26.044752
  H           27.247663        3.026470       25.998999
  H           28.424891        2.998083       24.663841
  H           26.678430        5.409916       25.421971
  H           26.392807        4.332605       24.041146
  H           28.726822        5.893103       24.493890
  C           30.749892       16.271594       35.525992
  C           32.247646       16.489659       35.469389
  O           32.811789       15.713484       34.422393
  H           30.518974       15.217508       35.711843
  H           30.297558       16.875689       36.317405
  H           30.285754       16.535398       34.570013
  H           32.721875       16.203887       36.413174
  H           32.474207       17.541845       35.274146
  H           32.613548       14.780127       34.609875
  C           14.383410       27.330099       23.249592
  C           14.821050       25.880693       23.208170
  O           14.839984       25.341790       24.521993
  H           15.071586       27.924938       23.859134
  H           14.347649       27.755517       22.242809
  H           13.392999       27.420556       23.707650
  H           15.821200       25.784873       22.774799
  H           14.126034       25.287990       22.606338
  H           15.467130       25.868778       25.045991
  C           25.809997       14.189118       16.546308
  C           27.251717       13.752863       16.704887
  O           27.582906       12.799486       15.705741
  H           25.133681       13.333622       16.644715
  H           25.543746       14.936479       17.298927
  H           25.643264       14.613879       15.550973
  H           27.420034       13.303795       17.688400
  H           27.924692       14.608376       16.596499
  H           26.986315       12.039592       15.816398
  C           11.414301       34.587632        7.260509
  C           10.959116       33.148486        7.135261
  O           11.932576       32.280933        7.697963
  H           12.362074       34.741031        6.734053
  H           10.667211       35.270332        6.846202
  H           11.587571       34.846950        8.310102
  H           10.808434       32.874278        6.086741
  H           10.017141       32.996958        7.670301
  H           12.762720       32.415960        7.209873
  C           15.719430       18.350471       13.385458
  C           16.073895       16.897919       13.627265
  O           14.908902       16.091510       13.530296
  H           14.992460       18.699934       14.125966
  H           16.609531       18.983384       13.440374
  H           15.256300       18.475323       12.401164
  H           16.514063       16.761231       14.619666
  H           16.792899       16.549801       12.880009
  H           14.280422       16.402160       14.204175
  C           33.699433       22.326378       21.413927
  C           34.836873       23.309221       21.599053
  O           34.363817       24.483116       22.243331
  H           32.905848       22.764065       20.799425
  H           34.051036       21.409117       20.933426
  H           33.250214       22.070729       22.379203
  H           35.274400       23.589190       20.635996
  H           35.623208       22.871970       22.221174
  H           33.672774       24.869253       21.678564
  C           29.699255        9.253277       35.235828
  C           28.841362       10.300762       35.914665
  O           28.163190       11.079047       34.939339
  H           30.445212        9.724688       34.587539
  H           30.215986        8.634077       35.974376
  H           29.086444        8.607268       34.598610
  H           29.450710       10.966355       36.533511
  H           28.091410        9.825852       36.553866
  H           28.837742       11.504293       34.382788
  C            7.042398        7.228194       15.429712
  C            6.922236        7.955609       16.752759
  O            7.822324        9.053617       16.786319
  H            8.059443        6.848075       15.287975
  H            6.343158        6.388790       15.381357
  H            6.837645        7.908129       14.596239
  H            7.150539        7.288607       17.589584
  H            5.907657        8.342013       16.886421
  H            8.721205        8.699279       16.676497
  C           12.909875       32.459348        2.607754
  C           12.542268       32.241526        4.060834
  O           12.853358       33.401285        4.819178
  H           13.980706       32.664058        2.505899
  H           12.660975       31.580398        2.006615
  H           12.379847       33.327403        2.202211
  H           13.087657       31.390776        4.480436
  H           11.470406       32.046798        4.159514
  H           13.808813       33.560303        4.733022
  C            2.933699       13.270531       18.919858
  C            2.748755       14.773744       18.906885
  O            3.976832       15.416430       19.216217
  H            3.265216       12.929842       19.906260
  H            1.999930       12.760606       18.667023
  H            3.705861       12.971165       18.203577
  H            1.996404       15.083009       19.638741
  H            2.426831       15.111325       17.917466
  H            4.249464       15.117625       20.100520
  C            6.281265        8.135100        6.284695
  C            6.288747        7.274409        7.530960
  O            5.094221        7.481256        8.270709
  H            6.214683        9.196008        6.547379
  H            7.188042        7.974955        5.694796
  H            5.409412        7.905695        5.663278
  H            7.143705        7.515958        8.169702
  H            6.345718        6.215078        7.264281
  H            5.057600        8.422786        8.511091
  C            5.560862       30.443515       14.246422
  C            5.613408       29.255533       13.308360
  O            5.984912       28.087224       14.025261
  H            6.538659       30.615582       14.708231
  H            5.259785       31.349036       13.712327
  H            4.852046       30.260418       15.060650
  H            6.338765       29.420753       12.505958
  H            4.632707       29.080986       12.856360
  H            6.861160       28.248562       14.414829
  C            3.086286       30.243352       17.295332
  C            2.708546       30.465876       18.745097
  O            3.868095       30.408119       19.563032
  H            3.555684       29.262885       17.163758
  H            2.205609       30.301284       16.649635
  H            3.815322       30.991825       16.967904
  H            1.999333       29.706017       19.087034
  H            2.248714       31.449967       18.874186
  H            4.263810       29.527227       19.448831
  C            9.805597       12.813391       28.114733
  C           10.689811       13.539741       29.107005
  O            9.948733       13.856145       30.276448
  H            8.952742       13.437098       27.827351
  H           10.366419       12.547725       27.214303
  H            9.396629       11.900251       28.559518
  H           11.081906       14.466885       28.678103
  H           11.535282       12.910040       29.398896
  H            9.205829       14.423366       30.008200
  C           16.613501       28.313544       18.631589
  C           16.921997       26.940581       19.191790
  O           16.203345       26.736621       20.399617
  H           16.900432       29.095162       19.342720
  H           17.147011       28.480023       17.691629
  H           15.538867       28.424332       18.453264
  H           17.991303       26.831387       19.396613
  H           16.625294       26.162282       18.482733
  H           16.480843       27.426766       21.025954
  C           30.918389       27.376713       19.358773
  C           31.338771       28.329523       20.458525
  O           30.209656       29.044463       20.939008
  H           30.472053       27.924119       18.522057
  H           31.774735       26.805941       18.988957
  H           30.158283       26.678246       19.723869
  H           32.079880       29.047274       20.093997
  H           31.775367       27.778310       21.296436
  H           29.834772       29.538213       20.189825
  C            6.040806       28.469599        2.954063
  C            5.282345       27.689253        4.007544
  O            6.119620       26.687043        4.565621
  H            6.375145       27.807961        2.148200
  H            5.414372       29.256989        2.525731
  H            6.938341       28.925894        3.384339
  H            4.397402       27.209057        3.579084
  H            4.958306       28.351769        4.815390
  H            6.394301       26.098236        3.842116
  C           20.669454       17.994305       30.018330
  C           20.761567       16.548601       30.460460
  O           19.626727       15.827899       30.002601
  H           19.769953       18.467189       30.426057
  H           21.545010       18.559781       30.349254
  H           20.597048       18.059792       28.927743
  H           20.808517       16.473891       31.551104
  H           21.656165       16.077016       30.043509
  H           18.838165       16.248396       30.385950
  C           32.453735       26.070086       32.565142
  C           31.329423       25.121703       32.926410
  O           30.120919       25.846540       33.102574
  H           32.605152       26.810541       33.357456
  H           33.388890       25.524932       32.409690
  H           32.211484       26.625047       31.652867
  H           31.553232       24.581871       33.851495
  H           31.174870       24.389589       32.128495
  H           30.265304       26.487374       33.819574
  C           28.699060       25.349931        5.813131
  C           29.231102       23.936945        5.693029
  O           30.013265       23.811506        4.514304
  H           28.071901       25.601899        4.951652
  H           28.107549       25.467613        6.725347
  H           29.522418       26.071547        5.829397
  H           28.412872       23.211704        5.650426
  H           29.864695       23.692275        6.550492
  H           29.439301       24.021367        3.757913
  C           19.912862       22.673241       22.843967
  C           21.084531       21.727136       22.682404
  O           22.251952       22.298292       23.254955
  H           20.113709       23.626858       22.344731
  H           19.001315       22.240552       22.422381
  H           19.741892       22.897607       23.901956
  H           21.277635       21.518302       21.625810
  H           20.884122       20.779337       23.190399
  H           22.427074       23.134613       22.790732
  C           10.788548       13.118167       12.641674
  C           11.693897       14.193207       13.206169
  O           12.819257       14.374003       12.358948
  H           11.321523       12.164828       12.563926
  H            9.907792       12.978241       13.274574
  H           10.460103       13.382581       11.631169
  H           12.046845       13.923873       14.206257
  H           11.160943       15.146090       13.273401
  H           13.291270       13.525045       12.313361
  C           34.533733        9.332536       14.991279
  C           36.003785        9.696980       15.003546
  O           36.568924        9.477258       13.719316
  H           34.398494        8.278324       14.728012
  H           34.079379        9.511910       15.969675
  H           33.997455        9.919903       14.238737
  H           36.551182        9.095669       15.735715
  H           36.134316       10.752909       15.257556
  H           36.456652        8.534975       13.506948
  C           33.427393        6.554239       11.329356
  C           34.602533        6.855614       12.236132
  O           35.820928        6.649201       11.536265
  H           33.459415        5.514709       10.986846
  H           32.480307        6.724466       11.848896
  H           33.459107        7.185191       10.435037
  H           34.591696        6.210852       13.120131
  H           34.572321        7.897325       12.568505
  H           35.842683        5.719015       11.253625
  C            5.369835       25.871328       34.029853
  C            6.613448       25.026680       34.214293
  O            7.459656       25.154989       33.080990
  H            4.813097       25.551962       33.142717
  H            4.714685       25.796382       34.902226
  H            5.636986       26.922103       33.876833
  H            6.355550       23.971036       34.342338
  H            7.171815       25.354808       35.095828
  H            6.958127       24.852147       32.304873
  C            3.519159       23.089036       32.926564
  C            2.917044       24.294066       32.234189
  O            2.627473       25.306683       33.186902
  H            2.823701       22.680555       33.667134
  H            3.763429       22.305675       32.203688
  H            4.429811       23.369691       33.465877
  H            1.992345       24.026500       31.713967
  H            3.618271       24.704975       31.502082
  H            1.996714       24.935196       33.827014
  C           11.137105       24.508042        5.821822
  C           11.457773       23.652981        7.030155
  O           12.604153       22.856021        6.770208
  H           10.933478       23.881414        4.947274
  H           10.265569       25.140600        6.012001
  H           11.988700       25.146455        5.564672
  H           10.620415       22.993591        7.277798
  H           11.669890       24.282512        7.899202
  H           12.402429       22.293743        6.002905
  C           29.290065       32.986278       11.902221
  C           28.777367       34.089612       12.804340
  O           29.803181       35.044488       13.034176
  H           30.143126       32.475942       12.361357
  H           28.506175       32.250577       11.701887
  H           29.640449       33.398549       10.950288
  H           28.448983       33.688120       13.767802
  H           27.931484       34.603186       12.338220
  H           30.545975       34.580730       13.457011
  C           11.232169       30.092062       14.634525
  C           12.692945       30.254688       14.268859
  O           13.063575       31.623350       14.348259
  H           10.596101       30.664370       13.951266
  H           10.934889       29.040456       14.594246
  H           11.042343       30.475380       15.642466
  H           12.885421       29.897068       13.252813
  H           13.325637       29.689347       14.959248
  H           12.502819       32.115558       13.724651
  C            5.637973       10.989857       27.311694
  C            7.021096       11.477504       27.690103
  O            7.910773       10.375998       27.799949
  H            5.248602       10.303200       28.070544
  H            4.944021       11.828490       27.206821
  H            5.669594       10.436178       26.367580
  H            7.001736       12.010004       28.645802
  H            7.410527       12.155569       26.925174
  H            7.561477        9.784562       28.488279
  C           16.167254        9.433395       29.348944
  C           16.976828        9.205804       28.089256
  O           16.127012        8.769016       27.038572
  H           15.672949        8.508454       29.663760
  H           16.805218        9.786358       30.163985
  H           15.378227       10.171593       29.171712
  H           17.751414        8.450193       28.251610
  H           17.461296       10.134014       27.772614
  H           15.708882        7.939279       27.325465
  C           30.484204       10.211533        5.424599
  C           31.590167        9.205881        5.180605
  O           32.570512        9.305049        6.203344
  H           30.882145       11.231631        5.426573
  H           29.712058       10.136598        4.653854
  H           30.023670       10.047594        6.404366
  H           32.072366        9.379537        4.213848
  H           31.190427        8.187703        5.188822
  H           32.926303       10.209783        6.181639
  C            9.979987       24.987771       30.564675
  C            9.824562       26.484823       30.734086
  O            9.874118       27.124290       29.466990
  H           10.938631       24.749144       30.092425
  H            9.927387       24.478486       31.530974
  H            9.195874       24.590460       29.911818
  H           10.619929       26.893152       31.364918
  H            8.861887       26.719770       31.197336
  H           10.736422       26.917606       29.067844
  C           11.960990       21.197226       18.920253
  C           11.304542       21.550391       20.238727
  O           10.856422       22.897754       20.212140
  H           12.822379       21.846097       18.730686
  H           12.297234       20.156645       18.918489
  H           11.262328       21.345037       18.090231
  H           12.004881       21.429532       21.070718
  H           10.439012       20.906548       20.420026
  H           11.633547       23.462209       20.060248
  C           17.595513       27.529268       32.440184
  C           18.051683       26.239662       31.789916
  O           19.380685       26.381909       31.309891
  H           17.618598       28.354645       31.721030
  H           16.578632       27.430823       32.830229
  H           18.264920       27.804200       33.261901
  H           17.402076       25.971797       30.951138
  H           18.036364       25.419654       32.513724
  H           19.381992       27.105968       30.660783
  C           18.900323        8.971843        3.170896
  C           18.043497       10.110991        3.682964
  O           16.832212        9.602528        4.222556
  H           18.376696        8.416169        2.386038
  H           19.845113        9.345782        2.766651
  H           19.115972        8.260422        3.974817
  H           17.802459       10.813006        2.878995
  H           18.565998       10.657738        4.473284
  H           16.371009        9.126994        3.510683
  C           22.537630        9.155597       30.442357
  C           21.205733        9.481651       31.085599
  O           20.170589        8.734293       30.463636
  H           22.523265        9.403037       29.375807
  H           23.348477        9.711275       30.921546
  H           22.749823        8.084053       30.517716
  H           20.974807       10.547081       30.991672
  H           21.220798        9.224307       32.148657
  H           20.158959        8.976948       29.522049
  C           12.555482       11.456170       35.654900
  C           12.997835       10.009643       35.578060
  O           11.923265        9.196799       35.129183
  H           11.719587       11.568731       36.353163
  H           13.377375       12.098302       35.983582
  H           12.203342       11.803769       34.678127
  H           13.327274        9.647395       36.556598
  H           13.826536        9.899695       34.872573
  H           11.195924        9.293781       35.767283
  C           20.536314       16.734350        3.785071
  C           21.801315       15.989339        3.412573
  O           21.561435       15.158953        2.285708
  H           19.733443       16.033010        4.035035
  H           20.708834       17.391529        4.641941
  H           20.181751       17.336898        2.942377
  H           22.147668       15.364874        4.241653
  H           22.598046       16.692971        3.154373
  H           20.859257       14.531441        2.528147
  C           10.038529       34.167174        3.542782
  C           10.055200       35.438441        2.719602
  O           11.275791       35.534606        2.000009
  H           10.866017       34.159490        4.259836
  H            9.097209       34.069832        4.090791
  H           10.166312       33.290148        2.899813
  H            9.953571       36.321043        3.358332
  H            9.232988       35.438159        1.998136
  H           11.999206       35.543848        2.649770
  C            7.031878       17.000173        6.583690
  C            7.883943       16.036072        7.382764
  O            8.985514       15.598792        6.600310
  H            6.646023       16.517857        5.679562
  H            6.187472       17.359421        7.178494
  H            7.626130       17.859854        6.257003
  H            7.303034       15.161576        7.691132
  H            8.275283       16.524209        8.280049
  H            8.627699       15.158211        5.810715
  C            9.721774        9.321587        7.270467
  C           10.041108       10.052518        8.558018
  O            9.949108        9.159612        9.658546
  H            8.707416        8.910301        7.300216
  H            9.804434        9.992179        6.410615
  H           10.403704        8.476905        7.127649
  H            9.347268       10.882868        8.720480
  H           11.058329       10.453675        8.528333
  H            9.039665        8.816161        9.682153
  C           12.336769        3.182376       21.273545
  C           10.873831        3.543159       21.119688
  O           10.428697        4.261927       22.260799
  H           12.490182        2.557324       22.159398
  H           12.699657        2.642201       20.394685
  H           12.943434        4.083499       21.410829
  H           10.257904        2.645743       21.007574
  H           10.725970        4.175293       20.239296
  H           10.555131        3.688673       23.036039
  C           24.465953       27.930987        4.188831
  C           23.608519       26.971483        4.987693
  O           24.348529       26.458654        6.086009
  H           25.356027       27.424214        3.801646
  H           23.904723       28.347886        3.347946
  H           24.817378       28.752268        4.822006
  H           23.274476       26.134098        4.367619
  H           22.725420       27.483556        5.380712
  H           25.125436       25.997537        5.726300
  C           25.714572       21.551839       20.905671
  C           24.245923       21.484176       21.269697
  O           23.547152       22.565656       20.670509
  H           26.157760       22.489259       21.257507
  H           26.264424       20.715553       21.346310
  H           25.843600       21.526993       19.818635
  H           24.107545       21.534280       22.353962
  H           23.804547       20.550826       20.908325
  H           23.940083       23.389845       21.005055
  C           18.132770       32.567132       36.102769
  C           18.298511       32.394810       34.607156
  O           18.788815       33.596979       34.031572
  H           17.424117       33.372159       36.323456
  H           17.771156       31.643855       36.563929
  H           19.084937       32.845226       36.566403
  H           17.345324       32.141711       34.133166
  H           19.014177       31.596346       34.390775
  H           18.141785       34.297791       34.220830
  C           36.093594       19.748092        8.743912
  C           34.589159       19.691557        8.578082
  O           34.125335       20.877648        7.949622
  H           36.382980       20.604530        9.361757
  H           36.468897       18.833800        9.211984
  H           36.583671       19.875838        7.773130
  H           34.091002       19.589583        9.546964
  H           34.304674       18.840449        7.952598
  H           34.374303       21.626834        8.517371
  C           31.915207       10.787357       12.192316
  C           32.063064        9.281616       12.262344
  O           30.870811        8.655467       11.811370
  H           31.085882       11.124577       12.822763
  H           32.831894       11.284858       12.521024
  H           31.687139       11.104929       11.169552
  H           32.265904        8.954320       13.286563
  H           32.886218        8.947679       11.624027
  H           30.147521        8.950779       12.390374
  C           32.157275       25.319109        6.177231
  C           32.166978       26.734264        6.716922
  O           32.581076       27.637677        5.702391
  H           33.156867       25.027025        5.838904
  H           31.824323       24.612293        6.942362
  H           31.492641       25.241863        5.310509
  H           32.848835       26.825194        7.567858
  H           31.165008       27.025740        7.045013
  H           33.475558       27.376399        5.424472
  C            2.807820       17.584610        6.296907
  C            3.606341       18.869215        6.375503
  O            2.762052       19.942250        6.766242
  H            1.999676       17.675463        5.563689
  H            3.447711       16.744510        6.012928
  H            2.339205       17.362656        7.261298
  H            4.056913       19.111140        5.408162
  H            4.406579       18.777865        7.115652
  H            2.060317       20.021520        6.097746
  C           13.530256       18.800513       28.814995
  C           13.093438       20.232161       28.583481
  O           14.180329       20.995937       28.081266
  H           14.349139       18.758233       29.540670
  H           12.699234       18.194550       29.186591
  H           13.904510       18.356965       27.886495
  H           12.741873       20.690460       29.512811
  H           12.281911       20.271118       27.851051
  H           14.892149       20.963154       28.742962
  C           20.634813       15.509011       20.281442
  C           22.010052       15.337161       20.892350
  O           22.986179       15.226203       19.866791
  H           20.380920       14.649969       19.651724
  H           19.872920       15.612618       21.059040
  H           20.606946       16.394598       19.638114
  H           22.052893       14.439522       21.516609
  H           22.264000       16.201419       21.512926
  H           22.757390       14.450374       19.327024
  C            2.725332       33.714707       24.903734
  C            2.949238       34.886893       23.971067
  O            3.921778       35.764526       24.519551
  H            2.370478       34.059562       25.880522
  H            1.990315       33.020153       24.487539
  H            3.662697       33.176149       25.077556
  H            2.021674       35.445339       23.812784
  H            3.312678       34.539231       22.999682
  H            3.585551       36.075342       25.377425
  C           31.760972       17.925886        8.624030
  C           31.877581       18.709812        7.333339
  O           30.589913       18.908434        6.768213
  H           31.306564       16.946379        8.442259
  H           32.743554       17.778564        9.080869
  H           31.114432       18.449596        9.335806
  H           32.501845       18.180119        6.607383
  H           32.323082       19.691180        7.520400
  H           30.206529       18.031366        6.596831
  C           10.350297       33.461115       14.302220
  C            9.259305       32.982105       13.367174
  O            8.797806       34.060839       12.567014
  H            9.974780       34.248580       14.963921
  H           10.728352       32.637684       14.914518
  H           11.182139       33.891664       13.735141
  H            8.413123       32.573626       13.927899
  H            9.640706       32.202403       12.701485
  H            8.452315       34.743855       13.166789
  C           35.304639       29.675283       15.043029
  C           35.091277       28.191260       15.257914
  O           33.753342       27.841556       14.934582
  H           34.629941       30.259215       15.677669
  H           36.335855       29.958127       15.272083
  H           35.083985       29.950103       14.006352
  H           35.285288       27.913389       16.298317
  H           35.760205       27.611341       14.615439
  H           33.167372       28.354502       15.516930
  C           10.824998       17.436061       14.027296
  C           12.152279       17.712119       13.351915
  O           11.986582       18.694175       12.339484
  H           10.091278       17.067667       13.302795
  H           10.938770       16.693075       14.821589
  H           10.413462       18.354761       14.458040
  H           12.557624       16.803371       12.896764
  H           12.879647       18.088894       14.076844
  H           11.346266       18.346280       11.695615
  C           23.344273        7.080891       12.428486
  C           22.125169        6.754428       13.265881
  O           22.200727        5.414804       13.731288
  H           23.407961        6.415059       11.561553
  H           23.309356        8.115408       12.075741
  H           24.260919        6.935592       13.009486
  H           21.206098        6.872775       12.683994
  H           22.070194        7.415209       14.135876
  H           22.239426        4.835265       12.951391
  C           13.881827       20.407944        9.716875
  C           13.214931       21.647257        9.157075
  O           14.181389       22.476224        8.528045
  H           14.642068       20.678351       10.457061
  H           13.147667       19.750390       10.190694
  H           14.393336       19.853775        8.923044
  H           12.723014       22.220023        9.949064
  H           12.462978       21.373601        8.411271
  H           14.839354       22.721733        9.200660
  C           35.812081       21.028591       35.221493
  C           34.898443       19.966603       35.797227
  O           35.655045       19.035858       36.557604
  H           36.566097       20.577642       34.567990
  H           35.241917       21.763279       34.646150
  H           36.352288       21.546594       36.020719
  H           34.374071       19.427142       35.002678
  H           34.152714       20.419764       36.456831
  H           36.307993       18.631864       35.960904
  C           29.391376       24.161464       13.328157
  C           30.255051       23.036870       13.860489
  O           29.436867       21.959235       14.291981
  H           28.713207       24.529649       14.105002
  H           30.007769       24.993323       12.976103
  H           28.766482       23.808909       12.501038
  H           30.863984       23.375265       14.704277
  H           30.924330       22.665390       13.079071
  H           28.852891       22.296757       14.992448
  C           28.006883        8.881388        2.984088
  C           26.672823        8.164408        2.968396
  O           25.819781        8.747882        1.994341
  H           27.874231        9.940514        3.228254
  H           28.681930        8.432946        3.718311
  H           28.478706        8.838952        1.996923
  H           26.183348        8.224552        3.945171
  H           26.808386        7.109007        2.714827
  H           25.697765        9.682473        2.233624
  C            2.749744       17.707112       23.244244
  C            2.957838       16.350791       22.603061
  O            3.921878       15.609888       23.336952
  H            3.685661       18.275228       23.260538
  H            1.997198       18.284386       22.699909
  H            2.426654       17.595991       24.284522
  H            3.305529       16.453827       21.570693
  H            2.023112       15.782637       22.597225
  H            4.750926       16.118028       23.328186
  C            2.994819        9.945167       25.600702
  C            3.660617        8.728255       26.208865
  O            2.883339        7.568653       25.947964
  H            1.996635       10.093209       26.025760
  H            3.590043       10.845099       25.778761
  H            2.864997        9.814255       24.521387
  H            3.770642        8.841030       27.291670
  H            4.653466        8.578146       25.774972
  H            2.006835        7.707718       26.345462
  C           17.024583       16.901726       24.216362
  C           17.997904       18.060729       24.274523
  O           19.122376       17.791920       23.449774
  H           17.499627       15.979404       24.566532
  H           16.144275       17.100475       24.833962
  H           16.700950       16.721746       23.185934
  H           18.345589       18.230358       25.298062
  H           17.522736       18.978092       23.915070
  H           19.543070       16.980960       23.782886
  C           11.131620       15.497193        2.895892
  C           12.432891       14.726614        2.979106
  O           13.408750       15.495120        3.667585
  H           11.273958       16.440245        2.357975
  H           10.363906       14.911681        2.382408
  H           10.770820       15.753328        3.897456
  H           12.813001       14.489158        1.980897
  H           12.288835       13.789867        3.525274
  H           13.536641       16.320533        3.169648
  C           31.731232       24.309245       24.700027
  C           31.762941       25.809055       24.908805
  O           30.629812       26.218374       25.660723
  H           30.828111       24.013156       24.156275
  H           32.606726       23.975482       24.136127
  H           31.709302       23.786732       25.662010
  H           31.759188       26.338818       23.951398
  H           32.661613       26.099860       25.460499
  H           29.837090       25.964356       25.158060
  C           12.491676        9.174488       17.402567
  C           13.702283        8.326606       17.733552
  O           14.507777        8.986790       18.699080
  H           12.797632       10.143821       16.995449
  H           11.851806        8.672105       16.671780
  H           11.906011        9.378728       18.304895
  H           14.306542        8.139621       16.840693
  H           13.392878        7.363061       18.148757
  H           14.785432        9.836952       18.317326
  C            4.223520       15.698088        3.015965
  C            2.714413       15.694186        3.144822
  O            2.290989       14.539248        3.854567
  H            4.567972       14.811408        2.473642
  H            4.567247       16.590496        2.485558
  H            4.694625       15.669909        4.003982
  H            2.236396       15.696455        2.160553
  H            2.374913       16.576387        3.695282
  H            2.588815       13.761291        3.352884
  C           13.281668        9.919368       24.675302
  C           12.961243        8.444663       24.804128
  O           13.873346        7.826373       25.700058
  H           14.296985       10.062733       24.291194
  H           12.577223       10.413958       24.000757
  H           13.239140       10.409741       25.653381
  H           13.026775        7.942532       23.834149
  H           11.949889        8.305549       25.197011
  H           14.767586        7.946957       25.337569
  C           35.753083       25.730680        6.999182
  C           35.607594       24.926335        8.274284
  O           34.644493       23.898578        8.092466
  H           34.799879       26.192932        6.722257
  H           36.504033       26.516763        7.117593
  H           36.046604       25.083053        6.166514
  H           35.289500       25.562667        9.105662
  H           36.559281       24.458443        8.542453
  H           33.800709       24.324599        7.864128
  C           31.873549       30.172302        7.226135
  C           32.742486       31.294659        7.754611
  O           32.005231       32.508208        7.780246
  H           31.532280       30.392944        6.209369
  H           32.422146       29.226361        7.215609
  H           30.977418       30.055111        7.844300
  H           33.627676       31.434667        7.126816
  H           33.073563       31.075065        8.773784
  H           31.723905       32.699599        6.869296
  C           18.816259       19.584417        6.167866
  C           17.837656       18.434018        6.054107
  O           18.291358       17.332719        6.827541
  H           19.805608       19.288408        5.803820
  H           18.472578       20.447211        5.590508
  H           18.938525       19.884214        7.213851
  H           17.729636       18.111951        5.013965
  H           16.853168       18.730541        6.427474
  H           19.161775       17.070690        6.482116
  C           17.768575       35.226686       20.545885
  C           17.323968       33.799565       20.790166
  O           16.725745       33.690629       22.073586
  H           18.500894       35.538065       21.298024
  H           18.216958       35.331011       19.553947
  H           16.919535       35.913580       20.624753
  H           18.171886       33.109909       20.738210
  H           16.585534       33.495378       20.042683
  H           17.392291       33.953604       22.730978
  C            4.274104        7.161133       32.523215
  C            4.275357        5.765954       33.112703
  O            3.300921        4.963403       32.462094
  H            3.294448        7.633718       32.649311
  H            5.031308        7.787695       33.002729
  H            4.473964        7.124951       31.447270
  H            4.050968        5.791976       34.183340
  H            5.252537        5.293638       32.976381
  H            2.435563        5.385950       32.597047
  C            8.939188       24.037451       12.783194
  C            8.155673       24.594479       13.953599
  O            7.267877       23.606997       14.457191
  H            8.264973       23.732460       11.976116
  H            9.640129       24.781112       12.393934
  H            9.499432       23.146046       13.083921
  H            7.572918       25.470910       13.654340
  H            8.831814       24.889146       14.761404
  H            6.665430       23.358891       13.735316
  C            4.147484       30.764480       10.785574
  C            2.779773       30.667573       11.429002
  O            2.539056       31.813799       12.232200
  H            4.930700       30.824797       11.548395
  H            4.341699       29.896169       10.149815
  H            4.224076       31.672310       10.178210
  H            2.704314       29.775606       12.058279
  H            1.999523       30.617120       10.664012
  H            3.231439       31.844439       12.914308
  C           30.204725       11.091646       31.477516
  C           29.239782       11.472558       30.373970
  O           29.635359       12.703810       29.787077
  H           30.222051       11.858975       32.258457
  H           29.923133       10.136334       31.929133
  H           31.224546       11.011806       31.086998
  H           28.222197       11.579249       30.761822
  H           29.232336       10.708417       29.591297
  H           29.629548       13.377878       30.487935
  C            9.388446       35.309176       30.321550
  C           10.793262       34.747326       30.391120
  O           11.571814       35.499680       31.310210
  H            9.404891       36.352666       29.990160
  H            8.770694       34.729987       29.629600
  H            8.919085       35.296675       31.310720
  H           11.278163       34.780171       29.410772
  H           10.773465       33.707982       30.731586
  H           11.591380       36.419052       30.994021
  C           10.844545       21.715748        2.935895
  C            9.554217       21.462662        3.687577
  O            9.570996       22.155250        4.927314
  H           11.705312       21.367927        3.516465
  H           10.840577       21.202075        1.970495
  H           10.987475       22.787944        2.765955
  H            9.417065       20.394927        3.883590
  H            8.697576       21.820005        3.108771
  H           10.329451       21.824076        5.437875
  C           26.576151       32.353256       20.336943
  C           26.631670       33.862004       20.216026
  O           26.903158       34.440777       21.484183
  H           25.787658       32.049525       21.033353
  H           26.384072       31.890986       19.364685
  H           27.519171       31.963632       20.734207
  H           25.683367       34.261110       19.843566
  H           27.426579       34.161844       19.526997
  H           26.186765       34.176669       22.086372
  C           32.853792       15.304305       27.345301
  C           31.471989       15.359773       27.963013
  O           30.961184       16.682969       27.891340
  H           33.541697       15.971374       27.875176
  H           33.254849       14.287460       27.377734
  H           32.823869       15.640127       26.303552
  H           31.498240       15.049766       29.012059
  H           30.785449       14.699490       27.425208
  H           31.572605       17.260097       28.379901
  C           35.874491       15.600870       34.150944
  C           35.148581       15.904235       35.445180
  O           36.086892       16.107555       36.491669
  H           36.483804       14.696684       34.251674
  H           35.165651       15.457859       33.330599
  H           36.556598       16.417108       33.891335
  H           34.483732       15.081302       35.724549
  H           34.548598       16.813218       35.343609
  H           36.608309       15.291569       36.580512
  C           10.256413       18.099065        5.259670
  C           11.437723       18.482545        4.392794
  O           12.299897       19.356669        5.106563
  H            9.686326       18.987077        5.551895
  H            9.590614       17.412201        4.729763
  H           10.596133       17.620452        6.184025
  H           11.107103       18.984589        3.478500
  H           12.010081       17.594035        4.110834
  H           11.785117       20.146721        5.344100
  C            2.851309        6.963343       23.375242
  C            3.735945        5.739047       23.263248
  O            4.184103        5.344685       24.551867
  H            3.400722        7.798254       23.822491
  H            2.484088        7.270305       22.391985
  H            1.994294        6.761179       24.026063
  H            4.608427        5.941358       22.634650
  H            3.180966        4.904531       22.824924
  H            4.683918        6.088784       24.928834
  C           25.751456        4.831098       13.871188
  C           26.075729        3.812471       14.944160
  O           26.130456        2.511419       14.377436
  H           24.782897        4.612207       13.409733
  H           25.721913        5.841343       14.288807
  H           26.499168        4.800042       13.071891
  H           25.318639        3.819903       15.734128
  H           27.048074        4.028855       15.396120
  H           25.259558        2.324797       13.987164
  C           14.680764       11.338129       21.029132
  C           13.840175       11.735970       19.833658
  O           13.126966       12.930712       20.117963
  H           14.048693       11.164963       21.906321
  H           15.249647       10.427862       20.820187
  H           15.378901       12.139316       21.292981
  H           13.122181       10.950292       19.579720
  H           14.475778       11.917319       18.962069
  H           12.558338       12.756638       20.887356
  C           15.561981       30.831074       20.223623
  C           14.649580       31.896734       20.794513
  O           13.372614       31.342466       21.075673
  H           15.148032       30.423857       19.295301
  H           16.555580       31.238370       20.016878
  H           15.660806       29.993821       20.922303
  H           14.525560       32.725431       20.090829
  H           15.061610       32.294297       21.726565
  H           13.010928       31.000814       20.240173
  C           28.946089        3.162689       11.081590
  C           29.809191        4.330665       10.651578
  O           31.094407        3.867363       10.263665
  H           29.397756        2.639711       11.930974
  H           27.946479        3.501216       11.368035
  H           28.853922        2.432663       10.270739
  H           29.926934        5.052373       11.465559
  H           29.359637        4.844704        9.797055
  H           31.489284        3.420872       11.031989
  C            7.567185       14.509761        3.310353
  C            7.038585       13.710902        4.483567
  O            6.180030       12.678784        4.020399
  H            6.744241       14.967213        2.751370
  H            8.243825       15.299134        3.649353
  H            8.103669       13.859298        2.611786
  H            6.479136       14.349974        5.173418
  H            7.862787       13.247762        5.033782
  H            5.446358       13.100636        3.541475
  C           32.748539       21.668818        2.904381
  C           31.635153       22.492685        3.517275
  O           32.107644       23.159060        4.679000
  H           33.109049       20.916687        3.613811
  H           32.405046       21.161806        1.998388
  H           33.603845       22.304167        2.652000
  H           30.786593       21.860452        3.795692
  H           31.284216       23.248984        2.809179
  H           32.408052       22.478681        5.305453
  C            4.672291       11.583884       35.350446
  C            5.516899       12.792728       35.695924
  O            6.006609       13.398000       34.508180
  H            5.262866       10.843267       34.801201
  H            4.273565       11.115539       36.254627
  H            3.837526       11.869710       34.702076
  H            6.368033       12.510646       36.323053
  H            4.921144       13.534269       36.236053
  H            6.542205       12.734684       34.040470
  C           34.188716        3.933269        8.567702
  C           34.670639        5.331643        8.241632
  O           35.952464        5.273540        7.632982
  H           34.878857        3.437165        9.258027
  H           33.194559        3.959621        9.022489
  H           34.147762        3.318960        7.662241
  H           34.738579        5.944214        9.145751
  H           33.983850        5.820428        7.544527
  H           36.557291        4.846653        8.263502
  C           25.415865       19.193470       24.718827
  C           24.322364       18.209351       25.079088
  O           24.890221       16.945195       25.389497
  H           25.980497       18.843178       23.848512
  H           24.995843       20.177545       24.492887
  H           26.130365       19.293992       25.542416
  H           23.618334       18.084298       24.250840
  H           23.766785       18.557961       25.954502
  H           25.373328       16.639710       24.602802
  C           26.657200       16.318027       27.784362
  C           25.674181       15.306336       28.335885
  O           25.787365       15.240819       29.750029
  H           27.684747       16.037307       28.037948
  H           26.571061       16.392539       26.696750
  H           26.479803       17.305842       28.222157
  H           25.861649       14.310906       27.922042
  H           24.648472       15.595140       28.088785
  H           26.698871       14.974288       29.959123
  C           25.091434       22.501391       10.127724
  C           24.517661       21.158604        9.725565
  O           23.564986       21.329603        8.686299
  H           24.300813       23.168055       10.487501
  H           25.839700       22.385161       10.916685
  H           25.556920       22.994523        9.268040
  H           24.028157       20.670904       10.573991
  H           25.308884       20.498831        9.357854
  H           22.861695       21.909054        9.025743
  C           21.670599       12.117449       28.551843
  C           22.526070       12.617913       29.697151
  O           21.699156       13.114360       30.739580
  H           21.051630       12.925899       28.149045
  H           22.292658       11.716169       27.746927
  H           20.987037       11.334043       28.895252
  H           23.194213       13.419123       29.367095
  H           23.135793       11.805469       30.103006
  H           21.168680       13.841637       30.371792
  C           21.625544        4.961465       26.284522
  C           20.864304        4.612213       25.022556
  O           21.384309        3.417762       24.457058
  H           22.687589        5.114222       26.066146
  H           21.226023        5.870956       26.741777
  H           21.564161        4.143843       27.010222
  H           20.942419        5.414259       24.282346
  H           19.805747        4.451056       25.246231
  H           22.322148        3.574094       24.253044
  C           15.228413        5.153241        9.591967
  C           15.630997        6.366659       10.404104
  O           17.046180        6.481213       10.436391
  H           15.640959        4.239108       10.031430
  H           14.139903        5.060125        9.543521
  H           15.623555        5.223108        8.573196
  H           15.261154        6.291906       11.431196
  H           15.225062        7.278600        9.956750
  H           17.396651        5.670914       10.844053
  C            6.187765       30.584145       17.457717
  C            7.660787       30.325050       17.696676
  O            8.304950       30.018176       16.468756
  H            5.705206       29.702522       17.023162
  H            5.679972       30.838403       18.392261
  H            6.051463       31.404951       16.745951
  H            7.805259       29.488982       18.387624
  H            8.141277       31.210992       18.121859
  H            7.877604       29.224556       16.103863
  C           12.834184       25.444783       26.783796
  C           13.149874       23.964134       26.738611
  O           14.425765       23.722251       27.313502
  H           13.581418       26.017109       26.224290
  H           11.846666       25.646032       26.359321
  H           12.858089       25.812516       27.814869
  H           13.152966       23.594684       25.708666
  H           12.406766       23.396762       27.306436
  H           15.079891       24.222656       26.796474
  C            5.733590       35.653859       30.742817
  C            4.221081       35.683229       30.668799
  O            3.682931       34.516102       31.273047
  H            6.129782       34.777512       30.219360
  H            6.163393       36.554672       30.295963
  H            6.067060       35.580930       31.783197
  H            3.879737       35.730318       29.630263
  H            3.828611       36.554707       31.200813
  H            4.029667       33.748183       30.787580
  C           25.431426       35.418385       13.168659
  C           25.186167       33.923890       13.187507
  O           26.176450       33.259872       12.415934
  H           25.390688       35.804423       12.144805
  H           24.686117       35.943463       13.772547
  H           26.428724       35.650065       13.556775
  H           24.200942       33.682579       12.777152
  H           25.237081       33.540462       14.210706
  H           26.116801       33.600159       11.506951
  C           14.286906        4.351800        4.136044
  C           12.957338        4.703922        4.770302
  O           13.082113        4.714139        6.184951
  H           14.621256        3.361520        4.462413
  H           14.211717        4.355874        3.045079
  H           15.059890        5.065081        4.440409
  H           12.185353        3.980504        4.491023
  H           12.631316        5.697550        4.449430
  H           13.362638        3.824898        6.460922
  C           29.635171       35.647145        9.564735
  C           28.121462       35.698431        9.573517
  O           27.599364       34.517817       10.165522
  H           29.989906       34.784691        8.990890
  H           30.053607       36.557498        9.126511
  H           30.022720       35.533531       10.582483
  H           27.725771       35.786259        8.557148
  H           27.770830       36.555671       10.155533
  H           27.908339       33.763018        9.635980
  C            2.807137       19.196849        2.624990
  C            3.572539       20.471616        2.913351
  O            2.724313       21.412094        3.555938
  H            1.952746       19.398043        1.970393
  H            3.451523       18.455366        2.144529
  H            2.405801       18.770749        3.550345
  H            3.955128       20.917140        1.990082
  H            4.419487       20.268255        3.575067
  H            1.980431       21.593437        2.956473
  C           22.694007       35.888457       26.651860
  C           22.035833       35.257397       25.442483
  O           22.947135       34.380458       24.796408
  H           23.578056       36.462724       26.355826
  H           21.999167       36.554735       27.170652
  H           23.034512       35.117798       27.351184
  H           21.715639       36.020693       24.726840
  H           21.158838       34.676898       25.743229
  H           23.718080       34.907118       24.524607
  C           22.866122       27.857580       15.759877
  C           24.165637       28.415693       15.217849
  O           23.991743       29.774831       14.844474
  H           22.076268       27.911675       15.003461
  H           22.987702       26.815297       16.067670
  H           22.524199       28.443134       16.619603
  H           24.500512       27.851056       14.342443
  H           24.949586       28.368730       15.979271
  H           23.300515       29.804992       14.161175
  C           24.295221       27.609208       11.541971
  C           23.356885       26.741570       12.354838
  O           24.102920       25.901747       13.223765
  H           24.966492       26.991504       10.936333
  H           23.735102       28.274340       10.878843
  H           24.926970       28.214940       12.199918
  H           22.739784       26.114342       11.704406
  H           22.694460       27.361856       12.965562
  H           24.681021       25.348185       12.671523
  C           33.220225       14.508862        7.252041
  C           34.091362       15.695453        6.895466
  O           35.421290       15.263748        6.646816
  H           33.596629       14.008394        8.150269
  H           32.187975       14.822649        7.430561
  H           33.230665       13.767351        6.446458
  H           34.106257       16.429399        7.706880
  H           33.717821       16.186987        5.992467
  H           35.747457       14.837226        7.457555
  C           33.810737       14.520352       31.205613
  C           32.653231       13.557195       31.368499
  O           32.970251       12.311140       30.765381
  H           34.025168       14.692059       30.145662
  H           33.588720       15.480479       31.679677
  H           34.721358       14.107282       31.651769
  H           31.745408       13.952104       30.902457
  H           32.448226       13.380805       32.428407
  H           33.141192       12.476869       29.822557
  C           28.046483       29.967580       25.592938
  C           28.928583       29.998092       24.362088
  O           30.289724       30.134031       24.743821
  H           28.154806       30.891968       26.169770
  H           26.995398       29.846536       25.316458
  H           28.335875       29.144077       26.254003
  H           28.661877       30.834257       23.708646
  H           28.824850       29.069300       23.793642
  H           30.373408       30.966358       25.239635
  C           15.384238       30.257753        4.368709
  C           15.118636       29.497408        3.085996
  O           13.821499       29.807380        2.597877
  H           14.650976       29.989705        5.136459
  H           16.386632       30.042478        4.749149
  H           15.292257       31.336234        4.203387
  H           15.183666       28.417399        3.249218
  H           15.847166       29.774850        2.318653
  H           13.181116       29.548510        3.282346
  C           33.329326       17.348755       19.816703
  C           32.515622       16.073450       19.890910
  O           31.766568       16.045273       21.097156
  H           34.025447       17.413319       20.659442
  H           33.899883       17.393557       18.884860
  H           32.676758       18.226068       19.874915
  H           33.163343       15.192125       19.859033
  H           31.814899       16.017118       19.052842
  H           32.398141       16.085996       21.835438
  C            6.727295       29.272560       28.316473
  C            7.983335       28.767909       28.995971
  O            9.000233       28.542605       28.030537
  H            6.359963       28.540909       27.589345
  H            5.938929       29.466900       29.048991
  H            6.932436       30.195252       27.763781
  H            7.791994       27.831954       29.529512
  H            8.352540       29.505397       29.714542
  H            8.666537       27.879297       27.402625
  C            6.334239       22.394087       10.932480
  C            5.683692       23.759708       10.855718
  O            4.399674       23.720254       11.461233
  H            5.727299       21.646384       10.411400
  H            7.331753       22.411666       10.484674
  H            6.419169       22.065770       11.973589
  H            5.572131       24.083510        9.816489
  H            6.287950       24.501924       11.385371
  H            3.867610       23.065387       10.977847
  C            3.824256       25.739860        6.425628
  C            5.253264       25.575051        6.899756
  O            6.025814       24.930565        5.897403
  H            3.372590       24.765569        6.211814
  H            3.219393       26.250011        7.180451
  H            3.790996       26.317100        5.495789
  H            5.296637       24.977234        7.815192
  H            5.704056       26.550732        7.103172
  H            5.623221       24.061231        5.730727
  C           27.221733       20.844488       16.409627
  C           26.004907       21.693137       16.104418
  O           26.367074       22.773675       15.256964
  H           27.991289       21.438382       16.913646
  H           26.956192       19.997665       17.048573
  H           27.667965       20.464147       15.484894
  H           25.568318       22.097885       17.022492
  H           25.242368       21.098932       15.592559
  H           27.037465       23.300759       15.724256
  C           15.536437        3.228540       20.313939
  C           14.853959        3.866432       19.121740
  O           13.921260        2.958652       18.553484
  H           16.072537        2.322179       20.013823
  H           16.246703        3.921521       20.773474
  H           14.798534        2.927969       21.064985
  H           15.583127        4.146410       18.355438
  H           14.311740        4.766036       19.427119
  H           14.413823        2.167206       18.276719
  C            7.070532       15.268992       19.978186
  C            6.374588       16.613984       20.004311
  O            7.336853       17.658451       19.998094
  H            7.717202       15.150726       20.853853
  H            6.342248       14.453318       19.965923
  H            7.712068       15.184250       19.094918
  H            5.751171       16.716093       20.897740
  H            5.737025       16.732301       19.123368
  H            7.891954       17.550341       20.789156
  C           17.627426       20.216522       10.110553
  C           17.408377       21.481465        9.306836
  O           16.466159       21.241591        8.271659
  H           18.009946       19.413537        9.471916
  H           18.338839       20.389041       10.922957
  H           16.682908       19.862117       10.536225
  H           18.343840       21.827658        8.857005
  H           17.017330       22.278310        9.946106
  H           16.826838       20.539309        7.703932
  C           27.102253        9.813674       12.842421
  C           26.621109        8.549912       12.160197
  O           27.093565        7.409435       12.862339
  H           28.196427        9.848566       12.865414
  H           26.732765       10.702139       12.322824
  H           26.760868        9.843994       13.882349
  H           26.979918        8.500239       11.127686
  H           25.527901        8.514087       12.147644
  H           28.065321        7.445307       12.859660
  C           10.647980       13.197799       23.421377
  C           10.852690       14.597567       23.962457
  O           10.421594       14.663218       25.314030
  H            9.590228       12.917753       23.462582
  H           10.990769       13.126232       22.385401
  H           11.194552       12.467071       24.026528
  H           10.288726       15.330741       23.377913
  H           11.911527       14.870071       23.928512
  H            9.477984       14.428989       25.332461
  C           16.076233       28.209206       14.718659
  C           16.309350       28.912076       13.397427
  O           15.991598       30.290935       13.518626
  H           15.028845       28.298659       15.025152
  H           16.332342       27.148508       14.646544
  H           16.679590       28.666200       15.509879
  H           15.690352       28.477173       12.606863
  H           17.358510       28.828711       13.099335
  H           15.055528       30.354689       13.774189
  C           18.514678       17.577022       16.417043
  C           19.543388       16.465601       16.439918
  O           19.048961       15.332314       15.741271
  H           17.584226       17.253114       16.894855
  H           18.887160       18.463840       16.937315
  H           18.265077       17.849811       15.386413
  H           19.779047       16.169920       17.466722
  H           20.467954       16.789647       15.953380
  H           18.233226       15.046278       16.186651
  C           13.188003       14.958269        6.033039
  C           14.043770       16.186810        6.261890
  O           15.254620       15.821288        6.907757
  H           12.942106       14.475153        6.984404
  H           12.258039       15.220739        5.521035
  H           13.727430       14.219688        5.431019
  H           13.520799       16.919065        6.884461
  H           14.295230       16.661151        5.308835
  H           15.021074       15.409732        7.757276
  C           10.298857       12.347460        4.738911
  C           10.041954       11.362273        3.617558
  O           10.765373       11.747677        2.457801
  H            9.980753       13.354529        4.449804
  H            9.761323       12.055355        5.645335
  H           11.368834       12.404057        4.964429
  H            8.977186       11.319182        3.369158
  H           10.369691       10.359440        3.906451
  H           10.460371       12.635336        2.203561
  C           27.758099       28.607173       34.198334
  C           27.166525       28.688597       32.806417
  O           27.576068       29.892850       32.174789
  H           27.424523       29.451412       34.810665
  H           27.465301       27.676673       34.692614
  H           28.851095       28.656913       34.155938
  H           26.073166       28.665206       32.842596
  H           27.509531       27.848953       32.194951
  H           27.258487       30.632628       32.720201
  C           35.856269        6.984350       27.741361
  C           34.551375        6.215774       27.765189
  O           34.789045        4.867734       28.143618
  H           36.554111        6.540068       27.024011
  H           35.688170        8.029626       27.467475
  H           36.342214        6.948938       28.721930
  H           34.072255        6.225171       26.781499
  H           33.860536        6.656723       28.489655
  H           35.395878        4.482097       27.488911
  C           20.541733       33.729870       22.706148
  C           21.048379       32.326268       22.446856
  O           22.334680       32.160076       23.025403
  H           21.217683       34.472248       22.269195
  H           19.543972       33.869044       22.280734
  H           20.499525       33.931715       23.781503
  H           21.117554       32.125966       21.373364
  H           20.375729       31.587960       22.892937
  H           22.926958       32.813620       22.615904
  C           21.597384       22.513900        3.181890
  C           22.855313       23.205557        2.698933
  O           23.692062       22.276278        2.025734
  H           21.843479       21.702626        3.874879
  H           20.934028       23.220353        3.688599
  H           21.059074       22.062737        2.341897
  H           23.412108       23.637124        3.536203
  H           22.606046       24.008975        1.999697
  H           23.915734       21.571863        2.657695
  C            8.903029       20.073870       11.773477
  C            8.023454       19.857376       12.987355
  O            6.963482       18.968426       12.666216
  H            8.325675       20.505187       10.949105
  H            9.734547       20.743930       12.009000
  H            9.306530       19.121111       11.415218
  H            7.595909       20.802377       13.335881
  H            8.601409       19.417678       13.805389
  H            6.450488       19.372152       11.945490
  C           23.193780       27.336451       33.109254
  C           21.790422       27.594952       32.601527
  O           20.976277       26.452503       32.822626
  H           23.642748       26.484011       32.588931
  H           23.829735       28.213674       32.961222
  H           23.177888       27.086373       34.175144
  H           21.795695       27.820588       31.530849
  H           21.341819       28.441001       33.130206
  H           21.377613       25.708942       32.341327
  C           26.364510       22.425481        4.571843
  C           25.742762       23.690634        5.125775
  O           24.679852       23.362624        6.008689
  H           25.622615       21.839285        4.019641
  H           27.196365       22.660742        3.902110
  H           26.732466       21.789601        5.383740
  H           25.349699       24.319626        4.321312
  H           26.484394       24.268707        5.684665
  H           24.022029       22.857791        5.500737
  C           11.200497       33.990526       34.796378
  C           12.374636       34.310290       35.698139
  O           13.589884       34.191830       34.972850
  H           11.276218       32.968797       34.409986
  H           10.254993       34.093377       35.336115
  H           11.187661       34.658727       33.929052
  H           12.408810       33.629736       36.554275
  H           12.300454       35.334701       36.074469
  H           13.651139       33.276256       34.651018
  C           26.299083        8.973089       31.825989
  C           27.404967        8.944822       32.860516
  O           26.935989        8.337741       34.055680
  H           25.440634        9.545461       32.192618
  H           26.649424        9.423148       30.892940
  H           25.940471        7.959737       31.617598
  H           27.751082        9.956508       33.092867
  H           28.256793        8.364298       32.494552
  H           26.185857        8.865972       34.377981
  C           29.495786       12.351974        9.518368
  C           30.279423       13.043260        8.421983
  O           29.545634       13.010491        7.206506
  H           29.303897       11.306223        9.256557
  H           30.040593       12.383126       10.466043
  H           28.520256       12.830130        9.654823
  H           31.245498       12.554907        8.262296
  H           30.460878       14.089970        8.682786
  H           29.397892       12.076831        6.978354
  C            6.714971       10.204876       19.083544
  C            5.230373       10.503745       19.109472
  O            4.598068        9.734137       20.121795
  H            6.892774        9.144593       18.875827
  H            7.219729       10.802546       18.319423
  H            7.168109       10.418889       20.057082
  H            4.765651       10.268058       18.147299
  H            5.056574       11.561658       19.326630
  H            4.749878        8.796205       19.914816
  C           19.072512       30.222908        3.931350
  C           18.521557       29.269031        2.891836
  O           17.369645       28.611171        3.399011
  H           19.353339       29.683178        4.841728
  H           19.951241       30.750279        3.549789
  H           18.314719       30.959166        4.218730
  H           19.265142       28.514345        2.618301
  H           18.233344       29.813006        1.987640
  H           17.637903       28.123218        4.196220
  C           29.245886       28.974661        5.319796
  C           30.252555       28.522807        4.282266
  O           29.617026       28.377472        3.020566
  H           28.438121       28.242252        5.420061
  H           29.723468       29.107364        6.294567
  H           28.782581       29.920608        5.020721
  H           30.701358       27.564851        4.561885
  H           31.052706       29.261357        4.178114
  H           28.914503       27.712664        3.121045
  C           12.419262       28.160341       17.364385
  C           12.044509       27.283385       16.187724
  O           10.643432       27.344524       15.963775
  H           11.907365       27.827857       18.273437
  H           13.498409       28.137193       17.539826
  H           12.111541       29.195985       17.186450
  H           12.326066       26.241701       16.369132
  H           12.550292       27.624371       15.279727
  H           10.203384       27.030694       16.772152
  C           32.397062       19.039297       22.857893
  C           31.019073       18.840227       23.454167
  O           30.949825       17.580441       24.106125
  H           32.618536       18.256347       22.125158
  H           32.472037       20.013022       22.365845
  H           33.165983       18.974949       23.634767
  H           30.247053       18.877781       22.679657
  H           30.805298       19.618581       24.192415
  H           31.131554       16.895412       23.440307
  C           28.167877        8.684920       25.338936
  C           28.862166       10.029161       25.409658
  O           29.559687       10.150872       26.640737
  H           27.448863        8.577099       26.157688
  H           27.639131        8.568683       24.388784
  H           28.892842        7.870931       25.442667
  H           28.140677       10.848161       25.332307
  H           29.586314       10.129299       24.595945
  H           28.906758       10.070245       27.356828
  C           31.536501        5.907795       24.912237
  C           31.137660        4.705528       24.081874
  O           30.556175        3.712392       24.914018
  H           32.266765        5.624660       25.677424
  H           31.971347        6.689342       24.282979
  H           30.667985        6.318463       25.437541
  H           32.005414        4.274023       23.573842
  H           30.401115        4.990362       23.324961
  H           31.221188        3.459132       25.576755
  C            9.348562       13.654433       32.721621
  C           10.715237       13.011803       32.836723
  O           10.579184       11.639791       33.177281
  H            8.806649       13.584152       33.670490
  H            9.435489       14.708414       32.443342
  H            8.742316       13.138507       31.969824
  H           11.318052       13.506159       33.604523
  H           11.249666       13.075524       31.884425
  H           10.112016       11.594069       34.028907
  C           22.990739       12.086189        6.676228
  C           22.604894       10.798844        7.374720
  O           23.146462        9.686900        6.676729
  H           22.607704       12.099850        5.650528
  H           22.594795       12.953876        7.211223
  H           24.079904       12.177380        6.610539
  H           21.517284       10.688359        7.421476
  H           22.997316       10.784773        8.395677
  H           22.784568        9.702710        5.774296
