          24
  Built with Packmol                                             
  C            4.199628        3.177518        3.645815
  O            2.876739        3.146175        3.142539
  H            4.175007        3.317044        4.729349
  H            4.706361        2.241168        3.399663
  H            4.735314        4.011030        3.185469
  H            2.426531        2.397086        3.568735
  C            3.864936        3.518313        3.730316
  O            4.332223        4.780434        3.291001
  H            2.813046        3.403114        3.457596
  H            4.460891        2.727239        3.268623
  H            3.965795        3.460483        4.816642
  H            4.230290        4.802212        2.324254
  C            3.949381        3.172165        3.131924
  O            2.660651        3.704328        3.377451
  H            4.024063        2.176456        3.575889
  H            4.122276        3.116281        2.054378
  H            4.696775        3.827668        3.585067
  H            2.019168        3.101875        2.963911
  C            3.414635        3.784360        3.660079
  O            2.525668        2.770723        3.228127
  H            4.070798        4.070853        2.834554
  H            2.842669        4.650259        4.002415
  H            4.018118        3.399655        4.485567
  H            2.004069        3.141102        2.495857
