LAMMPS data file generated with LigParGen (israel.cabezadevaca@yale.edu)

       6 atoms
       5 bonds
       7 angles
       3 dihedrals
       6 atom types
       5 bond types
       7 angle types
       3 dihedral types

   -1.122000    48.878000 xlo xhi
   -0.643000    49.357000 ylo yhi
   -0.463000    49.537000 zlo zhi

Masses

       1     12.011
       2     15.999
       3      1.008
       4      1.008
       5      1.008
       6      1.008

Pair Coeffs

       1      0.066  3.5000000
       2      0.170  3.1200000
       3      0.030  2.5000000
       4      0.030  2.5000000
       5      0.030  2.5000000
       6      0.000  0.0000000

Bond Coeffs

       1   320.0000     1.4100
       2   340.0000     1.0900
       3   340.0000     1.0900
       4   340.0000     1.0900
       5   553.0000     0.9450

Angle Coeffs

       1     35.000    109.500
       2     35.000    109.500
       3     35.000    109.500
       4     55.000    108.500
       5     33.000    107.800
       6     33.000    107.800
       7     33.000    107.800

Dihedral Coeffs

       1      0.000      0.000      0.352      0.000
       2      0.000      0.000      0.352      0.000
       3      0.000      0.000      0.352      0.000

Atoms

     1      1      1   0.050801 -0.37100  0.00800 -0.00900
     2      1      2  -0.687165  0.91700 -0.50500 -0.29700
     3      1      3   0.076721 -0.52000  0.03300  1.07400
     4      1      4   0.076721 -0.46500  1.01400 -0.42300
     5      1      5   0.076721 -1.12200 -0.64300 -0.46300
     6      1      6   0.406201  1.56200  0.09300  0.11800

Bonds

     1      1      2      1
     2      2      3      1
     3      3      4      1
     4      4      5      1
     5      5      6      2

Angles

     1      1      3      1      2
     2      2      4      1      2
     3      3      5      1      2
     4      4      6      2      1
     5      5      4      1      3
     6      6      5      1      3
     7      7      5      1      4

Dihedrals

     1      1      6      2      1      3
     2      2      6      2      1      4
     3      3      6      2      1      5


