LAMMPS data file generated with LigParGen (israel.cabezadevaca@yale.edu)

       9 atoms
       8 bonds
      13 angles
      12 dihedrals
       9 atom types
       8 bond types
      13 angle types
      12 dihedral types

   -1.659000    48.341000 xlo xhi
   -1.462000    48.538000 ylo yhi
   -1.075000    48.925000 zlo zhi

Masses

       1     12.011
       2     12.011
       3     15.999
       4      1.008
       5      1.008
       6      1.008
       7      1.008
       8      1.008
       9      1.008

Pair Coeffs

       1      0.066  3.5000000
       2      0.066  3.5000000
       3      0.170  3.1200000
       4      0.030  2.5000000
       5      0.030  2.5000000
       6      0.030  2.5000000
       7      0.030  2.5000000
       8      0.030  2.5000000
       9      0.000  0.0000000

Bond Coeffs

       1   268.0000     1.5290
       2   320.0000     1.4100
       3   340.0000     1.0900
       4   340.0000     1.0900
       5   340.0000     1.0900
       6   340.0000     1.0900
       7   340.0000     1.0900
       8   553.0000     0.9450

Angle Coeffs

       1     50.000    109.500
       2     37.500    110.700
       3     37.500    110.700
       4     37.500    110.700
       5     37.500    110.700
       6     37.500    110.700
       7     55.000    108.500
       8     35.000    109.500
       9     35.000    109.500
      10     33.000    107.800
      11     33.000    107.800
      12     33.000    107.800
      13     33.000    107.800

Dihedral Coeffs

       1      0.000      0.000      0.300      0.000
       2      0.000      0.000      0.300      0.000
       3      0.000      0.000      0.300      0.000
       4      0.000      0.000      0.300      0.000
       5      0.000      0.000      0.300      0.000
       6     -0.500      0.200      0.300      0.000
       7      0.000      0.000      0.300      0.000
       8      0.000      0.000      0.300      0.000
       9      0.000      0.000      0.300      0.000
      10      0.000      0.000      0.300      0.000
      11      0.000      0.000      0.352      0.000
      12      0.000      0.000      0.352      0.000

Atoms

     1      1      1  -0.289395 -0.88700  0.17500 -0.01300
     2      1      2   0.109787  0.46000 -0.51600 -0.04700
     3      1      3  -0.688657  1.44300  0.30700  0.56600
     4      1      4   0.091535 -0.84700  1.12800 -0.55100
     5      1      5   0.091535 -1.65900 -0.45300 -0.46600
     6      1      6   0.091535 -1.17700  0.40400  1.01800
     7      1      7   0.093915  0.76900 -0.72400 -1.07500
     8      1      8   0.093915  0.41900 -1.46200  0.50000
     9      1      9   0.405830  1.47900  1.14100  0.06700

Bonds

     1      1      1      2
     2      2      3      2
     3      3      4      1
     4      4      5      1
     5      5      6      1
     6      6      7      2
     7      7      8      2
     8      8      9      3

Angles

     1      1      3      2      1
     2      2      4      1      2
     3      3      5      1      2
     4      4      6      1      2
     5      5      7      2      1
     6      6      8      2      1
     7      7      9      3      2
     8      8      7      2      3
     9      9      8      2      3
    10     10      5      1      4
    11     11      6      1      4
    12     12      6      1      5
    13     13      8      2      7

Dihedrals

     1      1      4      1      2      3
     2      2      5      1      2      3
     3      3      6      1      2      3
     4      4      7      2      1      4
     5      5      8      2      1      4
     6      6      9      3      2      1
     7      7      7      2      1      5
     8      8      8      2      1      5
     9      9      7      2      1      6
    10     10      8      2      1      6
    11     11      9      3      2      7
    12     12      9      3      2      8


