LAMMPS data file generated with LigParGen (israel.cabezadevaca@yale.edu)

       6 atoms
       5 bonds
       7 angles
       3 dihedrals
       6 atom types
       5 bond types
       7 angle types
       3 dihedral types

   -1.045000    48.955000 xlo xhi
   -0.747000    49.253000 ylo yhi
   -0.792000    49.208000 zlo zhi

Masses

       1     15.999
       2     12.011
       3      1.008
       4      1.008
       5      1.008
       6      1.008

Pair Coeffs

       1      0.170  3.1200000
       2      0.066  3.5000000
       3      0.030  2.5000000
       4      0.030  2.5000000
       5      0.030  2.5000000
       6      0.000  0.0000000

Bond Coeffs

       1   320.0000     1.4100
       2   340.0000     1.0900
       3   340.0000     1.0900
       4   340.0000     1.0900
       5   553.0000     0.9450

Angle Coeffs

       1     35.000    109.500
       2     35.000    109.500
       3     35.000    109.500
       4     55.000    108.500
       5     33.000    107.800
       6     33.000    107.800
       7     33.000    107.800

Dihedral Coeffs

       1      0.000      0.000      0.352      0.000
       2      0.000      0.000      0.352      0.000
       3      0.000      0.000      0.352      0.000

Atoms

     1      1      1  -0.686691  0.92500 -0.02500  0.52500
     2      1      2   0.054760 -0.36800 -0.00700  0.01300
     3      1      3   0.074666 -1.04500 -0.22800  0.87000
     4      1      4   0.074666 -0.59400  0.98800 -0.40100
     5      1      5   0.074666 -0.48400 -0.74700 -0.79200
     6      1      6   0.407933  1.56600  0.01900 -0.21600

Bonds

     1      1      2      1
     2      2      3      2
     3      3      4      2
     4      4      5      2
     5      5      6      1

Angles

     1      1      3      2      1
     2      2      4      2      1
     3      3      5      2      1
     4      4      6      1      2
     5      5      4      2      3
     6      6      5      2      3
     7      7      5      2      4

Dihedrals

     1      1      6      1      2      3
     2      2      6      1      2      4
     3      3      6      1      2      5


