# ================================================================
# LAMMPS Input: replica Green-Kubo production
# Generated automatically by write_lammps_input.py
# Flow: equil_nvt.restart -> short NVT decorrelation -> NVE + GK
# ================================================================

units           real
atom_style      full
boundary        p p p

read_restart    ../equil_nvt.restart

pair_modify     mix geometric tail yes
kspace_style    pppm 1e-5
special_bonds   lj 0.0 0.0 0.5 coul 0.0 0.0 0.5

neighbor        2.0 bin
neigh_modify    every 1 delay 0 check yes
timestep        0.500000

variable        T equal 298.150000
variable        seed equal 20265507

thermo          2000
thermo_style    custom step temp press density vol pe ke etotal
thermo_modify   flush yes

fix             mom all momentum 100 linear 1 1 1
velocity        all create ${T} ${seed} rot yes dist gaussian

# ================================================================
# Stage R1: short NVT decorrelation
# ================================================================
fix             f_nvt_decor all nvt temp ${T} ${T} 100.0
run             200000
unfix           f_nvt_decor
write_restart   replica_init.restart
write_data      replica_init.data
reset_timestep  0

# ================================================================
# Stage R2: NVE + Green-Kubo production
# ================================================================
unfix           mom
fix             f_nve all nve

compute         myKE     all ke/atom
compute         myPE     all pe/atom
compute         myStress all stress/atom NULL virial
compute         myFlux   all heat/flux myKE myPE myStress

variable        Jx equal c_myFlux[1]/vol
variable        Jy equal c_myFlux[2]/vol
variable        Jz equal c_myFlux[3]/vol

variable        Nev_k  equal 5
variable        Nrep_k equal 8000
variable        Nfq_k  equal ${Nev_k}*${Nrep_k}

fix             hfacf all ave/correlate ${Nev_k} ${Nrep_k} ${Nfq_k} &
                v_Jx v_Jy v_Jz &
                type auto file hfacf.dat ave running

variable        pxy_v equal pxy
variable        pxz_v equal pxz
variable        pyz_v equal pyz

variable        Nev_v  equal 5
variable        Nrep_v equal 8000
variable        Nfq_v  equal ${Nev_v}*${Nrep_v}

fix             vacf all ave/correlate ${Nev_v} ${Nrep_v} ${Nfq_v} &
                v_pxy_v v_pxz_v v_pyz_v &
                type auto file vacf.dat ave running

compute         dip all dipole
variable        Mx equal c_dip[1]
variable        My equal c_dip[2]
variable        Mz equal c_dip[3]

variable        sample_every equal 20
fix             gkdata all print ${sample_every} &
                "$(step) $(temp) $(vol) $(v_pxy_v) $(v_pxz_v) $(v_pyz_v) $(v_Jx) $(v_Jy) $(v_Jz) $(v_Mx) $(v_My) $(v_Mz)" &
                file gk_data.dat screen no title "# step T V pxy pxz pyz Jx Jy Jz Mx My Mz"

run             2000000

write_restart   prod_final.restart
write_data      prod_final.data
