LAMMPS data file - LigParGen-BOSS-OPLSAA force field

24 atoms
20 bonds
28 angles
12 dihedrals

6 atom types
5 bond types
7 angle types
3 dihedral types

0.0 6.81806121 xlo xhi
0.0 6.81806121 ylo yhi
0.0 6.81806121 zlo zhi


Masses

       1     12.011
       2     15.999
       3      1.008
       4      1.008
       5      1.008
       6      1.008

Pair Coeffs # lj/cut/coul/long

       1      0.066  3.5000000
       2      0.170  3.1200000
       3      0.030  2.5000000
       4      0.030  2.5000000
       5      0.030  2.5000000
       6      0.000  0.0000000

Bond Coeffs # harmonic

       1   320.0000     1.4100
       2   340.0000     1.0900
       3   340.0000     1.0900
       4   340.0000     1.0900
       5   553.0000     0.9450

Angle Coeffs # harmonic

       1     35.000    109.500
       2     35.000    109.500
       3     35.000    109.500
       4     55.000    108.500
       5     33.000    107.800
       6     33.000    107.800
       7     33.000    107.800

Dihedral Coeffs

       1      0.000      0.000      0.352      0.000
       2      0.000      0.000      0.352      0.000
       3      0.000      0.000      0.352      0.000

Atoms # full

1 1 1 0.050801 4.19962800 3.17751800 3.64581500
2 1 2 -0.687165 2.87673900 3.14617500 3.14253900
3 1 3 0.076721 4.17500700 3.31704400 4.72934900
4 1 4 0.076721 4.70636100 2.24116800 3.39966300
5 1 5 0.076721 4.73531400 4.01103000 3.18546900
6 1 6 0.406201 2.42653100 2.39708600 3.56873500
7 2 1 0.050801 3.86493600 3.51831300 3.73031600
8 2 2 -0.687165 4.33222300 4.78043400 3.29100100
9 2 3 0.076721 2.81304600 3.40311400 3.45759600
10 2 4 0.076721 4.46089100 2.72723900 3.26862300
11 2 5 0.076721 3.96579500 3.46048300 4.81664200
12 2 6 0.406201 4.23029000 4.80221200 2.32425400
13 3 1 0.050801 3.94938100 3.17216500 3.13192400
14 3 2 -0.687165 2.66065100 3.70432800 3.37745100
15 3 3 0.076721 4.02406300 2.17645600 3.57588900
16 3 4 0.076721 4.12227600 3.11628100 2.05437800
17 3 5 0.076721 4.69677500 3.82766800 3.58506700
18 3 6 0.406201 2.01916800 3.10187500 2.96391100
19 4 1 0.050801 3.41463500 3.78436000 3.66007900
20 4 2 -0.687165 2.52566800 2.77072300 3.22812700
21 4 3 0.076721 4.07079800 4.07085300 2.83455400
22 4 4 0.076721 2.84266900 4.65025900 4.00241500
23 4 5 0.076721 4.01811800 3.39965500 4.48556700
24 4 6 0.406201 2.00406900 3.14110200 2.49585700

Bonds

1 1 2 1
2 2 3 1
3 3 4 1
4 4 5 1
5 5 6 2
6 1 8 7
7 2 9 7
8 3 10 7
9 4 11 7
10 5 12 8
11 1 14 13
12 2 15 13
13 3 16 13
14 4 17 13
15 5 18 14
16 1 20 19
17 2 21 19
18 3 22 19
19 4 23 19
20 5 24 20

Angles

1 1 3 1 2
2 2 4 1 2
3 3 5 1 2
4 4 6 2 1
5 5 4 1 3
6 6 5 1 3
7 7 5 1 4
8 1 9 7 8
9 2 10 7 8
10 3 11 7 8
11 4 12 8 7
12 5 10 7 9
13 6 11 7 9
14 7 11 7 10
15 1 15 13 14
16 2 16 13 14
17 3 17 13 14
18 4 18 14 13
19 5 16 13 15
20 6 17 13 15
21 7 17 13 16
22 1 21 19 20
23 2 22 19 20
24 3 23 19 20
25 4 24 20 19
26 5 22 19 21
27 6 23 19 21
28 7 23 19 22

Dihedrals

1 1 6 2 1 3
2 2 6 2 1 4
3 3 6 2 1 5
4 1 12 8 7 9
5 2 12 8 7 10
6 3 12 8 7 11
7 1 18 14 13 15
8 2 18 14 13 16
9 3 18 14 13 17
10 1 24 20 19 21
11 2 24 20 19 22
12 3 24 20 19 23
